SystemName                       twisted_bilayer_graphene_1p084549deg
SystemLabel                      twisted_bilayer_graphene_1p084549deg

NumberOfAtoms                    11164
NumberOfSpecies                  1

%block ChemicalSpeciesLabel
  1   6  C
%endblock ChemicalSpeciesLabel
%block PAO.Basis
C           2
 n=2   0   1
   4.088
   1.000
 n=2   1   1
   4.870
   1.000
%endblock PAO.Basis

# Carbon-only structure derived from Comparison/results/graphene_hbn_magic_angle_spectral/target/splits/test/0/RUN.fdf.
# Rigid commensurate (31,30) TBG, twist 1.084549049 deg.

LatticeConstant                  1.0 Ang

%block LatticeVectors
 112.840000000000  66.580033000000  0.000000000000
 -1.240000000000  131.012323000000  0.000000000000
 0.000000000000  0.000000000000  20.000000000000
%endblock LatticeVectors

AtomicCoordinatesFormat          Ang
%block AtomicCoordinatesAndAtomicSpecies
 0.000000000000  0.000000000000  9.350000000000  1  # C
 0.000000000000  1.431828666700  9.350000000000  1  # C
 1.240000000000  2.147743000000  9.350000000000  1  # C
 1.240000000000  3.579571666700  9.350000000000  1  # C
 0.000000000000  4.295486000000  9.350000000000  1  # C
 0.000000000000  5.727314666700  9.350000000000  1  # C
 3.720000000000  3.579571666700  9.350000000000  1  # C
 2.480000000000  4.295486000000  9.350000000000  1  # C
 2.480000000000  5.727314666700  9.350000000000  1  # C
 1.240000000000  6.443229000000  9.350000000000  1  # C
 1.240000000000  7.875057666700  9.350000000000  1  # C
 0.000000000000  8.590972000000  9.350000000000  1  # C
 0.000000000000  10.022800666700  9.350000000000  1  # C
 4.960000000000  4.295486000000  9.350000000000  1  # C
 4.960000000000  5.727314666700  9.350000000000  1  # C
 3.720000000000  6.443229000000  9.350000000000  1  # C
 3.720000000000  7.875057666700  9.350000000000  1  # C
 2.480000000000  8.590972000000  9.350000000000  1  # C
 2.480000000000  10.022800666700  9.350000000000  1  # C
 1.240000000000  10.738715000000  9.350000000000  1  # C
 1.240000000000  12.170543666700  9.350000000000  1  # C
 0.000000000000  12.886458000000  9.350000000000  1  # C
 0.000000000000  14.318286666700  9.350000000000  1  # C
 7.440000000000  5.727314666700  9.350000000000  1  # C
 6.200000000000  6.443229000000  9.350000000000  1  # C
 6.200000000000  7.875057666700  9.350000000000  1  # C
 4.960000000000  8.590972000000  9.350000000000  1  # C
 4.960000000000  10.022800666700  9.350000000000  1  # C
 3.720000000000  10.738715000000  9.350000000000  1  # C
 3.720000000000  12.170543666700  9.350000000000  1  # C
 2.480000000000  12.886458000000  9.350000000000  1  # C
 2.480000000000  14.318286666700  9.350000000000  1  # C
 1.240000000000  15.034201000000  9.350000000000  1  # C
 1.240000000000  16.466029666700  9.350000000000  1  # C
 0.000000000000  17.181944000000  9.350000000000  1  # C
 0.000000000000  18.613772666700  9.350000000000  1  # C
 8.680000000000  6.443229000000  9.350000000000  1  # C
 8.680000000000  7.875057666700  9.350000000000  1  # C
 7.440000000000  8.590972000000  9.350000000000  1  # C
 7.440000000000  10.022800666700  9.350000000000  1  # C
 6.200000000000  10.738715000000  9.350000000000  1  # C
 6.200000000000  12.170543666700  9.350000000000  1  # C
 4.960000000000  12.886458000000  9.350000000000  1  # C
 4.960000000000  14.318286666700  9.350000000000  1  # C
 3.720000000000  15.034201000000  9.350000000000  1  # C
 3.720000000000  16.466029666700  9.350000000000  1  # C
 2.480000000000  17.181944000000  9.350000000000  1  # C
 2.480000000000  18.613772666700  9.350000000000  1  # C
 1.240000000000  19.329687000000  9.350000000000  1  # C
 1.240000000000  20.761515666700  9.350000000000  1  # C
 0.000000000000  21.477430000000  9.350000000000  1  # C
 0.000000000000  22.909258666700  9.350000000000  1  # C
 11.160000000000  7.875057666700  9.350000000000  1  # C
 9.920000000000  8.590972000000  9.350000000000  1  # C
 9.920000000000  10.022800666700  9.350000000000  1  # C
 8.680000000000  10.738715000000  9.350000000000  1  # C
 8.680000000000  12.170543666700  9.350000000000  1  # C
 7.440000000000  12.886458000000  9.350000000000  1  # C
 7.440000000000  14.318286666700  9.350000000000  1  # C
 6.200000000000  15.034201000000  9.350000000000  1  # C
 6.200000000000  16.466029666700  9.350000000000  1  # C
 4.960000000000  17.181944000000  9.350000000000  1  # C
 4.960000000000  18.613772666700  9.350000000000  1  # C
 3.720000000000  19.329687000000  9.350000000000  1  # C
 3.720000000000  20.761515666700  9.350000000000  1  # C
 2.480000000000  21.477430000000  9.350000000000  1  # C
 2.480000000000  22.909258666700  9.350000000000  1  # C
 1.240000000000  23.625173000000  9.350000000000  1  # C
 1.240000000000  25.057001666700  9.350000000000  1  # C
 0.000000000000  25.772916000000  9.350000000000  1  # C
 -0.000000000000  27.204744666700  9.350000000000  1  # C
 12.400000000000  8.590972000000  9.350000000000  1  # C
 12.400000000000  10.022800666700  9.350000000000  1  # C
 11.160000000000  10.738715000000  9.350000000000  1  # C
 11.160000000000  12.170543666700  9.350000000000  1  # C
 9.920000000000  12.886458000000  9.350000000000  1  # C
 9.920000000000  14.318286666700  9.350000000000  1  # C
 8.680000000000  15.034201000000  9.350000000000  1  # C
 8.680000000000  16.466029666700  9.350000000000  1  # C
 7.440000000000  17.181944000000  9.350000000000  1  # C
 7.440000000000  18.613772666700  9.350000000000  1  # C
 6.200000000000  19.329687000000  9.350000000000  1  # C
 6.200000000000  20.761515666700  9.350000000000  1  # C
 4.960000000000  21.477430000000  9.350000000000  1  # C
 4.960000000000  22.909258666700  9.350000000000  1  # C
 3.720000000000  23.625173000000  9.350000000000  1  # C
 3.720000000000  25.057001666700  9.350000000000  1  # C
 2.480000000000  25.772916000000  9.350000000000  1  # C
 2.480000000000  27.204744666700  9.350000000000  1  # C
 1.240000000000  27.920659000000  9.350000000000  1  # C
 1.240000000000  29.352487666700  9.350000000000  1  # C
 0.000000000000  30.068402000000  9.350000000000  1  # C
 0.000000000000  31.500230666700  9.350000000000  1  # C
 14.880000000000  10.022800666700  9.350000000000  1  # C
 13.640000000000  10.738715000000  9.350000000000  1  # C
 13.640000000000  12.170543666700  9.350000000000  1  # C
 12.400000000000  12.886458000000  9.350000000000  1  # C
 12.400000000000  14.318286666700  9.350000000000  1  # C
 11.160000000000  15.034201000000  9.350000000000  1  # C
 11.160000000000  16.466029666700  9.350000000000  1  # C
 9.920000000000  17.181944000000  9.350000000000  1  # C
 9.920000000000  18.613772666700  9.350000000000  1  # C
 8.680000000000  19.329687000000  9.350000000000  1  # C
 8.680000000000  20.761515666700  9.350000000000  1  # C
 7.440000000000  21.477430000000  9.350000000000  1  # C
 7.440000000000  22.909258666700  9.350000000000  1  # C
 6.200000000000  23.625173000000  9.350000000000  1  # C
 6.200000000000  25.057001666700  9.350000000000  1  # C
 4.960000000000  25.772916000000  9.350000000000  1  # C
 4.960000000000  27.204744666700  9.350000000000  1  # C
 3.720000000000  27.920659000000  9.350000000000  1  # C
 3.720000000000  29.352487666700  9.350000000000  1  # C
 2.480000000000  30.068402000000  9.350000000000  1  # C
 2.480000000000  31.500230666700  9.350000000000  1  # C
 1.240000000000  32.216145000000  9.350000000000  1  # C
 1.240000000000  33.647973666700  9.350000000000  1  # C
 0.000000000000  34.363888000000  9.350000000000  1  # C
 0.000000000000  35.795716666700  9.350000000000  1  # C
 16.120000000000  10.738715000000  9.350000000000  1  # C
 16.120000000000  12.170543666700  9.350000000000  1  # C
 14.880000000000  12.886458000000  9.350000000000  1  # C
 14.880000000000  14.318286666700  9.350000000000  1  # C
 13.640000000000  15.034201000000  9.350000000000  1  # C
 13.640000000000  16.466029666700  9.350000000000  1  # C
 12.400000000000  17.181944000000  9.350000000000  1  # C
 12.400000000000  18.613772666700  9.350000000000  1  # C
 11.160000000000  19.329687000000  9.350000000000  1  # C
 11.160000000000  20.761515666700  9.350000000000  1  # C
 9.920000000000  21.477430000000  9.350000000000  1  # C
 9.920000000000  22.909258666700  9.350000000000  1  # C
 8.680000000000  23.625173000000  9.350000000000  1  # C
 8.680000000000  25.057001666700  9.350000000000  1  # C
 7.440000000000  25.772916000000  9.350000000000  1  # C
 7.440000000000  27.204744666700  9.350000000000  1  # C
 6.200000000000  27.920659000000  9.350000000000  1  # C
 6.200000000000  29.352487666700  9.350000000000  1  # C
 4.960000000000  30.068402000000  9.350000000000  1  # C
 4.960000000000  31.500230666700  9.350000000000  1  # C
 3.720000000000  32.216145000000  9.350000000000  1  # C
 3.720000000000  33.647973666700  9.350000000000  1  # C
 2.480000000000  34.363888000000  9.350000000000  1  # C
 2.480000000000  35.795716666700  9.350000000000  1  # C
 1.240000000000  36.511631000000  9.350000000000  1  # C
 1.240000000000  37.943459666700  9.350000000000  1  # C
 0.000000000000  38.659374000000  9.350000000000  1  # C
 0.000000000000  40.091202666700  9.350000000000  1  # C
 18.600000000000  12.170543666700  9.350000000000  1  # C
 17.360000000000  12.886458000000  9.350000000000  1  # C
 17.360000000000  14.318286666700  9.350000000000  1  # C
 16.120000000000  15.034201000000  9.350000000000  1  # C
 16.120000000000  16.466029666700  9.350000000000  1  # C
 14.880000000000  17.181944000000  9.350000000000  1  # C
 14.880000000000  18.613772666700  9.350000000000  1  # C
 13.640000000000  19.329687000000  9.350000000000  1  # C
 13.640000000000  20.761515666700  9.350000000000  1  # C
 12.400000000000  21.477430000000  9.350000000000  1  # C
 12.400000000000  22.909258666700  9.350000000000  1  # C
 11.160000000000  23.625173000000  9.350000000000  1  # C
 11.160000000000  25.057001666700  9.350000000000  1  # C
 9.920000000000  25.772916000000  9.350000000000  1  # C
 9.920000000000  27.204744666700  9.350000000000  1  # C
 8.680000000000  27.920659000000  9.350000000000  1  # C
 8.680000000000  29.352487666700  9.350000000000  1  # C
 7.440000000000  30.068402000000  9.350000000000  1  # C
 7.440000000000  31.500230666700  9.350000000000  1  # C
 6.200000000000  32.216145000000  9.350000000000  1  # C
 6.200000000000  33.647973666700  9.350000000000  1  # C
 4.960000000000  34.363888000000  9.350000000000  1  # C
 4.960000000000  35.795716666700  9.350000000000  1  # C
 3.720000000000  36.511631000000  9.350000000000  1  # C
 3.720000000000  37.943459666700  9.350000000000  1  # C
 2.480000000000  38.659374000000  9.350000000000  1  # C
 2.480000000000  40.091202666700  9.350000000000  1  # C
 1.240000000000  40.807117000000  9.350000000000  1  # C
 1.240000000000  42.238945666700  9.350000000000  1  # C
 0.000000000000  42.954860000000  9.350000000000  1  # C
 0.000000000000  44.386688666700  9.350000000000  1  # C
 19.840000000000  12.886458000000  9.350000000000  1  # C
 19.840000000000  14.318286666700  9.350000000000  1  # C
 18.600000000000  15.034201000000  9.350000000000  1  # C
 18.600000000000  16.466029666700  9.350000000000  1  # C
 17.360000000000  17.181944000000  9.350000000000  1  # C
 17.360000000000  18.613772666700  9.350000000000  1  # C
 16.120000000000  19.329687000000  9.350000000000  1  # C
 16.120000000000  20.761515666700  9.350000000000  1  # C
 14.880000000000  21.477430000000  9.350000000000  1  # C
 14.880000000000  22.909258666700  9.350000000000  1  # C
 13.640000000000  23.625173000000  9.350000000000  1  # C
 13.640000000000  25.057001666700  9.350000000000  1  # C
 12.400000000000  25.772916000000  9.350000000000  1  # C
 12.400000000000  27.204744666700  9.350000000000  1  # C
 11.160000000000  27.920659000000  9.350000000000  1  # C
 11.160000000000  29.352487666700  9.350000000000  1  # C
 9.920000000000  30.068402000000  9.350000000000  1  # C
 9.920000000000  31.500230666700  9.350000000000  1  # C
 8.680000000000  32.216145000000  9.350000000000  1  # C
 8.680000000000  33.647973666700  9.350000000000  1  # C
 7.440000000000  34.363888000000  9.350000000000  1  # C
 7.440000000000  35.795716666700  9.350000000000  1  # C
 6.200000000000  36.511631000000  9.350000000000  1  # C
 6.200000000000  37.943459666700  9.350000000000  1  # C
 4.960000000000  38.659374000000  9.350000000000  1  # C
 4.960000000000  40.091202666700  9.350000000000  1  # C
 3.720000000000  40.807117000000  9.350000000000  1  # C
 3.720000000000  42.238945666700  9.350000000000  1  # C
 2.480000000000  42.954860000000  9.350000000000  1  # C
 2.480000000000  44.386688666700  9.350000000000  1  # C
 1.240000000000  45.102603000000  9.350000000000  1  # C
 1.240000000000  46.534431666700  9.350000000000  1  # C
 0.000000000000  47.250346000000  9.350000000000  1  # C
 -0.000000000000  48.682174666700  9.350000000000  1  # C
 22.320000000000  14.318286666700  9.350000000000  1  # C
 21.080000000000  15.034201000000  9.350000000000  1  # C
 21.080000000000  16.466029666700  9.350000000000  1  # C
 19.840000000000  17.181944000000  9.350000000000  1  # C
 19.840000000000  18.613772666700  9.350000000000  1  # C
 18.600000000000  19.329687000000  9.350000000000  1  # C
 18.600000000000  20.761515666700  9.350000000000  1  # C
 17.360000000000  21.477430000000  9.350000000000  1  # C
 17.360000000000  22.909258666700  9.350000000000  1  # C
 16.120000000000  23.625173000000  9.350000000000  1  # C
 16.120000000000  25.057001666700  9.350000000000  1  # C
 14.880000000000  25.772916000000  9.350000000000  1  # C
 14.880000000000  27.204744666700  9.350000000000  1  # C
 13.640000000000  27.920659000000  9.350000000000  1  # C
 13.640000000000  29.352487666700  9.350000000000  1  # C
 12.400000000000  30.068402000000  9.350000000000  1  # C
 12.400000000000  31.500230666700  9.350000000000  1  # C
 11.160000000000  32.216145000000  9.350000000000  1  # C
 11.160000000000  33.647973666700  9.350000000000  1  # C
 9.920000000000  34.363888000000  9.350000000000  1  # C
 9.920000000000  35.795716666700  9.350000000000  1  # C
 8.680000000000  36.511631000000  9.350000000000  1  # C
 8.680000000000  37.943459666700  9.350000000000  1  # C
 7.440000000000  38.659374000000  9.350000000000  1  # C
 7.440000000000  40.091202666700  9.350000000000  1  # C
 6.200000000000  40.807117000000  9.350000000000  1  # C
 6.200000000000  42.238945666700  9.350000000000  1  # C
 4.960000000000  42.954860000000  9.350000000000  1  # C
 4.960000000000  44.386688666700  9.350000000000  1  # C
 3.720000000000  45.102603000000  9.350000000000  1  # C
 3.720000000000  46.534431666700  9.350000000000  1  # C
 2.480000000000  47.250346000000  9.350000000000  1  # C
 2.480000000000  48.682174666700  9.350000000000  1  # C
 1.240000000000  49.398089000000  9.350000000000  1  # C
 1.240000000000  50.829917666700  9.350000000000  1  # C
 0.000000000000  51.545832000000  9.350000000000  1  # C
 0.000000000000  52.977660666700  9.350000000000  1  # C
 23.560000000000  15.034201000000  9.350000000000  1  # C
 23.560000000000  16.466029666700  9.350000000000  1  # C
 22.320000000000  17.181944000000  9.350000000000  1  # C
 22.320000000000  18.613772666700  9.350000000000  1  # C
 21.080000000000  19.329687000000  9.350000000000  1  # C
 21.080000000000  20.761515666700  9.350000000000  1  # C
 19.840000000000  21.477430000000  9.350000000000  1  # C
 19.840000000000  22.909258666700  9.350000000000  1  # C
 18.600000000000  23.625173000000  9.350000000000  1  # C
 18.600000000000  25.057001666700  9.350000000000  1  # C
 17.360000000000  25.772916000000  9.350000000000  1  # C
 17.360000000000  27.204744666700  9.350000000000  1  # C
 16.120000000000  27.920659000000  9.350000000000  1  # C
 16.120000000000  29.352487666700  9.350000000000  1  # C
 14.880000000000  30.068402000000  9.350000000000  1  # C
 14.880000000000  31.500230666700  9.350000000000  1  # C
 13.640000000000  32.216145000000  9.350000000000  1  # C
 13.640000000000  33.647973666700  9.350000000000  1  # C
 12.400000000000  34.363888000000  9.350000000000  1  # C
 12.400000000000  35.795716666700  9.350000000000  1  # C
 11.160000000000  36.511631000000  9.350000000000  1  # C
 11.160000000000  37.943459666700  9.350000000000  1  # C
 9.920000000000  38.659374000000  9.350000000000  1  # C
 9.920000000000  40.091202666700  9.350000000000  1  # C
 8.680000000000  40.807117000000  9.350000000000  1  # C
 8.680000000000  42.238945666700  9.350000000000  1  # C
 7.440000000000  42.954860000000  9.350000000000  1  # C
 7.440000000000  44.386688666700  9.350000000000  1  # C
 6.200000000000  45.102603000000  9.350000000000  1  # C
 6.200000000000  46.534431666700  9.350000000000  1  # C
 4.960000000000  47.250346000000  9.350000000000  1  # C
 4.960000000000  48.682174666700  9.350000000000  1  # C
 3.720000000000  49.398089000000  9.350000000000  1  # C
 3.720000000000  50.829917666700  9.350000000000  1  # C
 2.480000000000  51.545832000000  9.350000000000  1  # C
 2.480000000000  52.977660666700  9.350000000000  1  # C
 1.240000000000  53.693575000000  9.350000000000  1  # C
 1.240000000000  55.125403666700  9.350000000000  1  # C
 0.000000000000  55.841318000000  9.350000000000  1  # C
 0.000000000000  57.273146666700  9.350000000000  1  # C
 26.040000000000  16.466029666700  9.350000000000  1  # C
 24.800000000000  17.181944000000  9.350000000000  1  # C
 24.800000000000  18.613772666700  9.350000000000  1  # C
 23.560000000000  19.329687000000  9.350000000000  1  # C
 23.560000000000  20.761515666700  9.350000000000  1  # C
 22.320000000000  21.477430000000  9.350000000000  1  # C
 22.320000000000  22.909258666700  9.350000000000  1  # C
 21.080000000000  23.625173000000  9.350000000000  1  # C
 21.080000000000  25.057001666700  9.350000000000  1  # C
 19.840000000000  25.772916000000  9.350000000000  1  # C
 19.840000000000  27.204744666700  9.350000000000  1  # C
 18.600000000000  27.920659000000  9.350000000000  1  # C
 18.600000000000  29.352487666700  9.350000000000  1  # C
 17.360000000000  30.068402000000  9.350000000000  1  # C
 17.360000000000  31.500230666700  9.350000000000  1  # C
 16.120000000000  32.216145000000  9.350000000000  1  # C
 16.120000000000  33.647973666700  9.350000000000  1  # C
 14.880000000000  34.363888000000  9.350000000000  1  # C
 14.880000000000  35.795716666700  9.350000000000  1  # C
 13.640000000000  36.511631000000  9.350000000000  1  # C
 13.640000000000  37.943459666700  9.350000000000  1  # C
 12.400000000000  38.659374000000  9.350000000000  1  # C
 12.400000000000  40.091202666700  9.350000000000  1  # C
 11.160000000000  40.807117000000  9.350000000000  1  # C
 11.160000000000  42.238945666700  9.350000000000  1  # C
 9.920000000000  42.954860000000  9.350000000000  1  # C
 9.920000000000  44.386688666700  9.350000000000  1  # C
 8.680000000000  45.102603000000  9.350000000000  1  # C
 8.680000000000  46.534431666700  9.350000000000  1  # C
 7.440000000000  47.250346000000  9.350000000000  1  # C
 7.440000000000  48.682174666700  9.350000000000  1  # C
 6.200000000000  49.398089000000  9.350000000000  1  # C
 6.200000000000  50.829917666700  9.350000000000  1  # C
 4.960000000000  51.545832000000  9.350000000000  1  # C
 4.960000000000  52.977660666700  9.350000000000  1  # C
 3.720000000000  53.693575000000  9.350000000000  1  # C
 3.720000000000  55.125403666700  9.350000000000  1  # C
 2.480000000000  55.841318000000  9.350000000000  1  # C
 2.480000000000  57.273146666700  9.350000000000  1  # C
 1.240000000000  57.989061000000  9.350000000000  1  # C
 1.240000000000  59.420889666700  9.350000000000  1  # C
 0.000000000000  60.136804000000  9.350000000000  1  # C
 0.000000000000  61.568632666700  9.350000000000  1  # C
 27.280000000000  17.181944000000  9.350000000000  1  # C
 27.280000000000  18.613772666700  9.350000000000  1  # C
 26.040000000000  19.329687000000  9.350000000000  1  # C
 26.040000000000  20.761515666700  9.350000000000  1  # C
 24.800000000000  21.477430000000  9.350000000000  1  # C
 24.800000000000  22.909258666700  9.350000000000  1  # C
 23.560000000000  23.625173000000  9.350000000000  1  # C
 23.560000000000  25.057001666700  9.350000000000  1  # C
 22.320000000000  25.772916000000  9.350000000000  1  # C
 22.320000000000  27.204744666700  9.350000000000  1  # C
 21.080000000000  27.920659000000  9.350000000000  1  # C
 21.080000000000  29.352487666700  9.350000000000  1  # C
 19.840000000000  30.068402000000  9.350000000000  1  # C
 19.840000000000  31.500230666700  9.350000000000  1  # C
 18.600000000000  32.216145000000  9.350000000000  1  # C
 18.600000000000  33.647973666700  9.350000000000  1  # C
 17.360000000000  34.363888000000  9.350000000000  1  # C
 17.360000000000  35.795716666700  9.350000000000  1  # C
 16.120000000000  36.511631000000  9.350000000000  1  # C
 16.120000000000  37.943459666700  9.350000000000  1  # C
 14.880000000000  38.659374000000  9.350000000000  1  # C
 14.880000000000  40.091202666700  9.350000000000  1  # C
 13.640000000000  40.807117000000  9.350000000000  1  # C
 13.640000000000  42.238945666700  9.350000000000  1  # C
 12.400000000000  42.954860000000  9.350000000000  1  # C
 12.400000000000  44.386688666700  9.350000000000  1  # C
 11.160000000000  45.102603000000  9.350000000000  1  # C
 11.160000000000  46.534431666700  9.350000000000  1  # C
 9.920000000000  47.250346000000  9.350000000000  1  # C
 9.920000000000  48.682174666700  9.350000000000  1  # C
 8.680000000000  49.398089000000  9.350000000000  1  # C
 8.680000000000  50.829917666700  9.350000000000  1  # C
 7.440000000000  51.545832000000  9.350000000000  1  # C
 7.440000000000  52.977660666700  9.350000000000  1  # C
 6.200000000000  53.693575000000  9.350000000000  1  # C
 6.200000000000  55.125403666700  9.350000000000  1  # C
 4.960000000000  55.841318000000  9.350000000000  1  # C
 4.960000000000  57.273146666700  9.350000000000  1  # C
 3.720000000000  57.989061000000  9.350000000000  1  # C
 3.720000000000  59.420889666700  9.350000000000  1  # C
 2.480000000000  60.136804000000  9.350000000000  1  # C
 2.480000000000  61.568632666700  9.350000000000  1  # C
 1.240000000000  62.284547000000  9.350000000000  1  # C
 1.240000000000  63.716375666700  9.350000000000  1  # C
 0.000000000000  64.432290000000  9.350000000000  1  # C
 0.000000000000  65.864118666700  9.350000000000  1  # C
 29.760000000000  18.613772666700  9.350000000000  1  # C
 28.520000000000  19.329687000000  9.350000000000  1  # C
 28.520000000000  20.761515666700  9.350000000000  1  # C
 27.280000000000  21.477430000000  9.350000000000  1  # C
 27.280000000000  22.909258666700  9.350000000000  1  # C
 26.040000000000  23.625173000000  9.350000000000  1  # C
 26.040000000000  25.057001666700  9.350000000000  1  # C
 24.800000000000  25.772916000000  9.350000000000  1  # C
 24.800000000000  27.204744666700  9.350000000000  1  # C
 23.560000000000  27.920659000000  9.350000000000  1  # C
 23.560000000000  29.352487666700  9.350000000000  1  # C
 22.320000000000  30.068402000000  9.350000000000  1  # C
 22.320000000000  31.500230666700  9.350000000000  1  # C
 21.080000000000  32.216145000000  9.350000000000  1  # C
 21.080000000000  33.647973666700  9.350000000000  1  # C
 19.840000000000  34.363888000000  9.350000000000  1  # C
 19.840000000000  35.795716666700  9.350000000000  1  # C
 18.600000000000  36.511631000000  9.350000000000  1  # C
 18.600000000000  37.943459666700  9.350000000000  1  # C
 17.360000000000  38.659374000000  9.350000000000  1  # C
 17.360000000000  40.091202666700  9.350000000000  1  # C
 16.120000000000  40.807117000000  9.350000000000  1  # C
 16.120000000000  42.238945666700  9.350000000000  1  # C
 14.880000000000  42.954860000000  9.350000000000  1  # C
 14.880000000000  44.386688666700  9.350000000000  1  # C
 13.640000000000  45.102603000000  9.350000000000  1  # C
 13.640000000000  46.534431666700  9.350000000000  1  # C
 12.400000000000  47.250346000000  9.350000000000  1  # C
 12.400000000000  48.682174666700  9.350000000000  1  # C
 11.160000000000  49.398089000000  9.350000000000  1  # C
 11.160000000000  50.829917666700  9.350000000000  1  # C
 9.920000000000  51.545832000000  9.350000000000  1  # C
 9.920000000000  52.977660666700  9.350000000000  1  # C
 8.680000000000  53.693575000000  9.350000000000  1  # C
 8.680000000000  55.125403666700  9.350000000000  1  # C
 7.440000000000  55.841318000000  9.350000000000  1  # C
 7.440000000000  57.273146666700  9.350000000000  1  # C
 6.200000000000  57.989061000000  9.350000000000  1  # C
 6.200000000000  59.420889666700  9.350000000000  1  # C
 4.960000000000  60.136804000000  9.350000000000  1  # C
 4.960000000000  61.568632666700  9.350000000000  1  # C
 3.720000000000  62.284547000000  9.350000000000  1  # C
 3.720000000000  63.716375666700  9.350000000000  1  # C
 2.480000000000  64.432290000000  9.350000000000  1  # C
 2.480000000000  65.864118666700  9.350000000000  1  # C
 1.240000000000  66.580033000000  9.350000000000  1  # C
 1.240000000000  68.011861666700  9.350000000000  1  # C
 0.000000000000  68.727776000000  9.350000000000  1  # C
 0.000000000000  70.159604666700  9.350000000000  1  # C
 31.000000000000  19.329687000000  9.350000000000  1  # C
 31.000000000000  20.761515666700  9.350000000000  1  # C
 29.760000000000  21.477430000000  9.350000000000  1  # C
 29.760000000000  22.909258666700  9.350000000000  1  # C
 28.520000000000  23.625173000000  9.350000000000  1  # C
 28.520000000000  25.057001666700  9.350000000000  1  # C
 27.280000000000  25.772916000000  9.350000000000  1  # C
 27.280000000000  27.204744666700  9.350000000000  1  # C
 26.040000000000  27.920659000000  9.350000000000  1  # C
 26.040000000000  29.352487666700  9.350000000000  1  # C
 24.800000000000  30.068402000000  9.350000000000  1  # C
 24.800000000000  31.500230666700  9.350000000000  1  # C
 23.560000000000  32.216145000000  9.350000000000  1  # C
 23.560000000000  33.647973666700  9.350000000000  1  # C
 22.320000000000  34.363888000000  9.350000000000  1  # C
 22.320000000000  35.795716666700  9.350000000000  1  # C
 21.080000000000  36.511631000000  9.350000000000  1  # C
 21.080000000000  37.943459666700  9.350000000000  1  # C
 19.840000000000  38.659374000000  9.350000000000  1  # C
 19.840000000000  40.091202666700  9.350000000000  1  # C
 18.600000000000  40.807117000000  9.350000000000  1  # C
 18.600000000000  42.238945666700  9.350000000000  1  # C
 17.360000000000  42.954860000000  9.350000000000  1  # C
 17.360000000000  44.386688666700  9.350000000000  1  # C
 16.120000000000  45.102603000000  9.350000000000  1  # C
 16.120000000000  46.534431666700  9.350000000000  1  # C
 14.880000000000  47.250346000000  9.350000000000  1  # C
 14.880000000000  48.682174666700  9.350000000000  1  # C
 13.640000000000  49.398089000000  9.350000000000  1  # C
 13.640000000000  50.829917666700  9.350000000000  1  # C
 12.400000000000  51.545832000000  9.350000000000  1  # C
 12.400000000000  52.977660666700  9.350000000000  1  # C
 11.160000000000  53.693575000000  9.350000000000  1  # C
 11.160000000000  55.125403666700  9.350000000000  1  # C
 9.920000000000  55.841318000000  9.350000000000  1  # C
 9.920000000000  57.273146666700  9.350000000000  1  # C
 8.680000000000  57.989061000000  9.350000000000  1  # C
 8.680000000000  59.420889666700  9.350000000000  1  # C
 7.440000000000  60.136804000000  9.350000000000  1  # C
 7.440000000000  61.568632666700  9.350000000000  1  # C
 6.200000000000  62.284547000000  9.350000000000  1  # C
 6.200000000000  63.716375666700  9.350000000000  1  # C
 4.960000000000  64.432290000000  9.350000000000  1  # C
 4.960000000000  65.864118666700  9.350000000000  1  # C
 3.720000000000  66.580033000000  9.350000000000  1  # C
 3.720000000000  68.011861666700  9.350000000000  1  # C
 2.480000000000  68.727776000000  9.350000000000  1  # C
 2.480000000000  70.159604666700  9.350000000000  1  # C
 1.240000000000  70.875519000000  9.350000000000  1  # C
 1.240000000000  72.307347666700  9.350000000000  1  # C
 0.000000000000  73.023262000000  9.350000000000  1  # C
 0.000000000000  74.455090666700  9.350000000000  1  # C
 33.480000000000  20.761515666700  9.350000000000  1  # C
 32.240000000000  21.477430000000  9.350000000000  1  # C
 32.240000000000  22.909258666700  9.350000000000  1  # C
 31.000000000000  23.625173000000  9.350000000000  1  # C
 31.000000000000  25.057001666700  9.350000000000  1  # C
 29.760000000000  25.772916000000  9.350000000000  1  # C
 29.760000000000  27.204744666700  9.350000000000  1  # C
 28.520000000000  27.920659000000  9.350000000000  1  # C
 28.520000000000  29.352487666700  9.350000000000  1  # C
 27.280000000000  30.068402000000  9.350000000000  1  # C
 27.280000000000  31.500230666700  9.350000000000  1  # C
 26.040000000000  32.216145000000  9.350000000000  1  # C
 26.040000000000  33.647973666700  9.350000000000  1  # C
 24.800000000000  34.363888000000  9.350000000000  1  # C
 24.800000000000  35.795716666700  9.350000000000  1  # C
 23.560000000000  36.511631000000  9.350000000000  1  # C
 23.560000000000  37.943459666700  9.350000000000  1  # C
 22.320000000000  38.659374000000  9.350000000000  1  # C
 22.320000000000  40.091202666700  9.350000000000  1  # C
 21.080000000000  40.807117000000  9.350000000000  1  # C
 21.080000000000  42.238945666700  9.350000000000  1  # C
 19.840000000000  42.954860000000  9.350000000000  1  # C
 19.840000000000  44.386688666700  9.350000000000  1  # C
 18.600000000000  45.102603000000  9.350000000000  1  # C
 18.600000000000  46.534431666700  9.350000000000  1  # C
 17.360000000000  47.250346000000  9.350000000000  1  # C
 17.360000000000  48.682174666700  9.350000000000  1  # C
 16.120000000000  49.398089000000  9.350000000000  1  # C
 16.120000000000  50.829917666700  9.350000000000  1  # C
 14.880000000000  51.545832000000  9.350000000000  1  # C
 14.880000000000  52.977660666700  9.350000000000  1  # C
 13.640000000000  53.693575000000  9.350000000000  1  # C
 13.640000000000  55.125403666700  9.350000000000  1  # C
 12.400000000000  55.841318000000  9.350000000000  1  # C
 12.400000000000  57.273146666700  9.350000000000  1  # C
 11.160000000000  57.989061000000  9.350000000000  1  # C
 11.160000000000  59.420889666700  9.350000000000  1  # C
 9.920000000000  60.136804000000  9.350000000000  1  # C
 9.920000000000  61.568632666700  9.350000000000  1  # C
 8.680000000000  62.284547000000  9.350000000000  1  # C
 8.680000000000  63.716375666700  9.350000000000  1  # C
 7.440000000000  64.432290000000  9.350000000000  1  # C
 7.440000000000  65.864118666700  9.350000000000  1  # C
 6.200000000000  66.580033000000  9.350000000000  1  # C
 6.200000000000  68.011861666700  9.350000000000  1  # C
 4.960000000000  68.727776000000  9.350000000000  1  # C
 4.960000000000  70.159604666700  9.350000000000  1  # C
 3.720000000000  70.875519000000  9.350000000000  1  # C
 3.720000000000  72.307347666700  9.350000000000  1  # C
 2.480000000000  73.023262000000  9.350000000000  1  # C
 2.480000000000  74.455090666700  9.350000000000  1  # C
 1.240000000000  75.171005000000  9.350000000000  1  # C
 1.240000000000  76.602833666700  9.350000000000  1  # C
 0.000000000000  77.318748000000  9.350000000000  1  # C
 0.000000000000  78.750576666700  9.350000000000  1  # C
 34.720000000000  21.477430000000  9.350000000000  1  # C
 34.720000000000  22.909258666700  9.350000000000  1  # C
 33.480000000000  23.625173000000  9.350000000000  1  # C
 33.480000000000  25.057001666700  9.350000000000  1  # C
 32.240000000000  25.772916000000  9.350000000000  1  # C
 32.240000000000  27.204744666700  9.350000000000  1  # C
 31.000000000000  27.920659000000  9.350000000000  1  # C
 31.000000000000  29.352487666700  9.350000000000  1  # C
 29.760000000000  30.068402000000  9.350000000000  1  # C
 29.760000000000  31.500230666700  9.350000000000  1  # C
 28.520000000000  32.216145000000  9.350000000000  1  # C
 28.520000000000  33.647973666700  9.350000000000  1  # C
 27.280000000000  34.363888000000  9.350000000000  1  # C
 27.280000000000  35.795716666700  9.350000000000  1  # C
 26.040000000000  36.511631000000  9.350000000000  1  # C
 26.040000000000  37.943459666700  9.350000000000  1  # C
 24.800000000000  38.659374000000  9.350000000000  1  # C
 24.800000000000  40.091202666700  9.350000000000  1  # C
 23.560000000000  40.807117000000  9.350000000000  1  # C
 23.560000000000  42.238945666700  9.350000000000  1  # C
 22.320000000000  42.954860000000  9.350000000000  1  # C
 22.320000000000  44.386688666700  9.350000000000  1  # C
 21.080000000000  45.102603000000  9.350000000000  1  # C
 21.080000000000  46.534431666700  9.350000000000  1  # C
 19.840000000000  47.250346000000  9.350000000000  1  # C
 19.840000000000  48.682174666700  9.350000000000  1  # C
 18.600000000000  49.398089000000  9.350000000000  1  # C
 18.600000000000  50.829917666700  9.350000000000  1  # C
 17.360000000000  51.545832000000  9.350000000000  1  # C
 17.360000000000  52.977660666700  9.350000000000  1  # C
 16.120000000000  53.693575000000  9.350000000000  1  # C
 16.120000000000  55.125403666700  9.350000000000  1  # C
 14.880000000000  55.841318000000  9.350000000000  1  # C
 14.880000000000  57.273146666700  9.350000000000  1  # C
 13.640000000000  57.989061000000  9.350000000000  1  # C
 13.640000000000  59.420889666700  9.350000000000  1  # C
 12.400000000000  60.136804000000  9.350000000000  1  # C
 12.400000000000  61.568632666700  9.350000000000  1  # C
 11.160000000000  62.284547000000  9.350000000000  1  # C
 11.160000000000  63.716375666700  9.350000000000  1  # C
 9.920000000000  64.432290000000  9.350000000000  1  # C
 9.920000000000  65.864118666700  9.350000000000  1  # C
 8.680000000000  66.580033000000  9.350000000000  1  # C
 8.680000000000  68.011861666700  9.350000000000  1  # C
 7.440000000000  68.727776000000  9.350000000000  1  # C
 7.440000000000  70.159604666700  9.350000000000  1  # C
 6.200000000000  70.875519000000  9.350000000000  1  # C
 6.200000000000  72.307347666700  9.350000000000  1  # C
 4.960000000000  73.023262000000  9.350000000000  1  # C
 4.960000000000  74.455090666700  9.350000000000  1  # C
 3.720000000000  75.171005000000  9.350000000000  1  # C
 3.720000000000  76.602833666700  9.350000000000  1  # C
 2.480000000000  77.318748000000  9.350000000000  1  # C
 2.480000000000  78.750576666700  9.350000000000  1  # C
 1.240000000000  79.466491000000  9.350000000000  1  # C
 1.240000000000  80.898319666700  9.350000000000  1  # C
 0.000000000000  81.614234000000  9.350000000000  1  # C
 0.000000000000  83.046062666700  9.350000000000  1  # C
 37.200000000000  22.909258666700  9.350000000000  1  # C
 35.960000000000  23.625173000000  9.350000000000  1  # C
 35.960000000000  25.057001666700  9.350000000000  1  # C
 34.720000000000  25.772916000000  9.350000000000  1  # C
 34.720000000000  27.204744666700  9.350000000000  1  # C
 33.480000000000  27.920659000000  9.350000000000  1  # C
 33.480000000000  29.352487666700  9.350000000000  1  # C
 32.240000000000  30.068402000000  9.350000000000  1  # C
 32.240000000000  31.500230666700  9.350000000000  1  # C
 31.000000000000  32.216145000000  9.350000000000  1  # C
 31.000000000000  33.647973666700  9.350000000000  1  # C
 29.760000000000  34.363888000000  9.350000000000  1  # C
 29.760000000000  35.795716666700  9.350000000000  1  # C
 28.520000000000  36.511631000000  9.350000000000  1  # C
 28.520000000000  37.943459666700  9.350000000000  1  # C
 27.280000000000  38.659374000000  9.350000000000  1  # C
 27.280000000000  40.091202666700  9.350000000000  1  # C
 26.040000000000  40.807117000000  9.350000000000  1  # C
 26.040000000000  42.238945666700  9.350000000000  1  # C
 24.800000000000  42.954860000000  9.350000000000  1  # C
 24.800000000000  44.386688666700  9.350000000000  1  # C
 23.560000000000  45.102603000000  9.350000000000  1  # C
 23.560000000000  46.534431666700  9.350000000000  1  # C
 22.320000000000  47.250346000000  9.350000000000  1  # C
 22.320000000000  48.682174666700  9.350000000000  1  # C
 21.080000000000  49.398089000000  9.350000000000  1  # C
 21.080000000000  50.829917666700  9.350000000000  1  # C
 19.840000000000  51.545832000000  9.350000000000  1  # C
 19.840000000000  52.977660666700  9.350000000000  1  # C
 18.600000000000  53.693575000000  9.350000000000  1  # C
 18.600000000000  55.125403666700  9.350000000000  1  # C
 17.360000000000  55.841318000000  9.350000000000  1  # C
 17.360000000000  57.273146666700  9.350000000000  1  # C
 16.120000000000  57.989061000000  9.350000000000  1  # C
 16.120000000000  59.420889666700  9.350000000000  1  # C
 14.880000000000  60.136804000000  9.350000000000  1  # C
 14.880000000000  61.568632666700  9.350000000000  1  # C
 13.640000000000  62.284547000000  9.350000000000  1  # C
 13.640000000000  63.716375666700  9.350000000000  1  # C
 12.400000000000  64.432290000000  9.350000000000  1  # C
 12.400000000000  65.864118666700  9.350000000000  1  # C
 11.160000000000  66.580033000000  9.350000000000  1  # C
 11.160000000000  68.011861666700  9.350000000000  1  # C
 9.920000000000  68.727776000000  9.350000000000  1  # C
 9.920000000000  70.159604666700  9.350000000000  1  # C
 8.680000000000  70.875519000000  9.350000000000  1  # C
 8.680000000000  72.307347666700  9.350000000000  1  # C
 7.440000000000  73.023262000000  9.350000000000  1  # C
 7.440000000000  74.455090666700  9.350000000000  1  # C
 6.200000000000  75.171005000000  9.350000000000  1  # C
 6.200000000000  76.602833666700  9.350000000000  1  # C
 4.960000000000  77.318748000000  9.350000000000  1  # C
 4.960000000000  78.750576666700  9.350000000000  1  # C
 3.720000000000  79.466491000000  9.350000000000  1  # C
 3.720000000000  80.898319666700  9.350000000000  1  # C
 2.480000000000  81.614234000000  9.350000000000  1  # C
 2.480000000000  83.046062666700  9.350000000000  1  # C
 1.240000000000  83.761977000000  9.350000000000  1  # C
 1.240000000000  85.193805666700  9.350000000000  1  # C
 0.000000000000  85.909720000000  9.350000000000  1  # C
 0.000000000000  87.341548666700  9.350000000000  1  # C
 38.440000000000  23.625173000000  9.350000000000  1  # C
 38.440000000000  25.057001666700  9.350000000000  1  # C
 37.200000000000  25.772916000000  9.350000000000  1  # C
 37.200000000000  27.204744666700  9.350000000000  1  # C
 35.960000000000  27.920659000000  9.350000000000  1  # C
 35.960000000000  29.352487666700  9.350000000000  1  # C
 34.720000000000  30.068402000000  9.350000000000  1  # C
 34.720000000000  31.500230666700  9.350000000000  1  # C
 33.480000000000  32.216145000000  9.350000000000  1  # C
 33.480000000000  33.647973666700  9.350000000000  1  # C
 32.240000000000  34.363888000000  9.350000000000  1  # C
 32.240000000000  35.795716666700  9.350000000000  1  # C
 31.000000000000  36.511631000000  9.350000000000  1  # C
 31.000000000000  37.943459666700  9.350000000000  1  # C
 29.760000000000  38.659374000000  9.350000000000  1  # C
 29.760000000000  40.091202666700  9.350000000000  1  # C
 28.520000000000  40.807117000000  9.350000000000  1  # C
 28.520000000000  42.238945666700  9.350000000000  1  # C
 27.280000000000  42.954860000000  9.350000000000  1  # C
 27.280000000000  44.386688666700  9.350000000000  1  # C
 26.040000000000  45.102603000000  9.350000000000  1  # C
 26.040000000000  46.534431666700  9.350000000000  1  # C
 24.800000000000  47.250346000000  9.350000000000  1  # C
 24.800000000000  48.682174666700  9.350000000000  1  # C
 23.560000000000  49.398089000000  9.350000000000  1  # C
 23.560000000000  50.829917666700  9.350000000000  1  # C
 22.320000000000  51.545832000000  9.350000000000  1  # C
 22.320000000000  52.977660666700  9.350000000000  1  # C
 21.080000000000  53.693575000000  9.350000000000  1  # C
 21.080000000000  55.125403666700  9.350000000000  1  # C
 19.840000000000  55.841318000000  9.350000000000  1  # C
 19.840000000000  57.273146666700  9.350000000000  1  # C
 18.600000000000  57.989061000000  9.350000000000  1  # C
 18.600000000000  59.420889666700  9.350000000000  1  # C
 17.360000000000  60.136804000000  9.350000000000  1  # C
 17.360000000000  61.568632666700  9.350000000000  1  # C
 16.120000000000  62.284547000000  9.350000000000  1  # C
 16.120000000000  63.716375666700  9.350000000000  1  # C
 14.880000000000  64.432290000000  9.350000000000  1  # C
 14.880000000000  65.864118666700  9.350000000000  1  # C
 13.640000000000  66.580033000000  9.350000000000  1  # C
 13.640000000000  68.011861666700  9.350000000000  1  # C
 12.400000000000  68.727776000000  9.350000000000  1  # C
 12.400000000000  70.159604666700  9.350000000000  1  # C
 11.160000000000  70.875519000000  9.350000000000  1  # C
 11.160000000000  72.307347666700  9.350000000000  1  # C
 9.920000000000  73.023262000000  9.350000000000  1  # C
 9.920000000000  74.455090666700  9.350000000000  1  # C
 8.680000000000  75.171005000000  9.350000000000  1  # C
 8.680000000000  76.602833666700  9.350000000000  1  # C
 7.440000000000  77.318748000000  9.350000000000  1  # C
 7.440000000000  78.750576666700  9.350000000000  1  # C
 6.200000000000  79.466491000000  9.350000000000  1  # C
 6.200000000000  80.898319666700  9.350000000000  1  # C
 4.960000000000  81.614234000000  9.350000000000  1  # C
 4.960000000000  83.046062666700  9.350000000000  1  # C
 3.720000000000  83.761977000000  9.350000000000  1  # C
 3.720000000000  85.193805666700  9.350000000000  1  # C
 2.480000000000  85.909720000000  9.350000000000  1  # C
 2.480000000000  87.341548666700  9.350000000000  1  # C
 1.240000000000  88.057463000000  9.350000000000  1  # C
 1.240000000000  89.489291666700  9.350000000000  1  # C
 -0.000000000000  90.205206000000  9.350000000000  1  # C
 0.000000000000  91.637034666700  9.350000000000  1  # C
 40.920000000000  25.057001666700  9.350000000000  1  # C
 39.680000000000  25.772916000000  9.350000000000  1  # C
 39.680000000000  27.204744666700  9.350000000000  1  # C
 38.440000000000  27.920659000000  9.350000000000  1  # C
 38.440000000000  29.352487666700  9.350000000000  1  # C
 37.200000000000  30.068402000000  9.350000000000  1  # C
 37.200000000000  31.500230666700  9.350000000000  1  # C
 35.960000000000  32.216145000000  9.350000000000  1  # C
 35.960000000000  33.647973666700  9.350000000000  1  # C
 34.720000000000  34.363888000000  9.350000000000  1  # C
 34.720000000000  35.795716666700  9.350000000000  1  # C
 33.480000000000  36.511631000000  9.350000000000  1  # C
 33.480000000000  37.943459666700  9.350000000000  1  # C
 32.240000000000  38.659374000000  9.350000000000  1  # C
 32.240000000000  40.091202666700  9.350000000000  1  # C
 31.000000000000  40.807117000000  9.350000000000  1  # C
 31.000000000000  42.238945666700  9.350000000000  1  # C
 29.760000000000  42.954860000000  9.350000000000  1  # C
 29.760000000000  44.386688666700  9.350000000000  1  # C
 28.520000000000  45.102603000000  9.350000000000  1  # C
 28.520000000000  46.534431666700  9.350000000000  1  # C
 27.280000000000  47.250346000000  9.350000000000  1  # C
 27.280000000000  48.682174666700  9.350000000000  1  # C
 26.040000000000  49.398089000000  9.350000000000  1  # C
 26.040000000000  50.829917666700  9.350000000000  1  # C
 24.800000000000  51.545832000000  9.350000000000  1  # C
 24.800000000000  52.977660666700  9.350000000000  1  # C
 23.560000000000  53.693575000000  9.350000000000  1  # C
 23.560000000000  55.125403666700  9.350000000000  1  # C
 22.320000000000  55.841318000000  9.350000000000  1  # C
 22.320000000000  57.273146666700  9.350000000000  1  # C
 21.080000000000  57.989061000000  9.350000000000  1  # C
 21.080000000000  59.420889666700  9.350000000000  1  # C
 19.840000000000  60.136804000000  9.350000000000  1  # C
 19.840000000000  61.568632666700  9.350000000000  1  # C
 18.600000000000  62.284547000000  9.350000000000  1  # C
 18.600000000000  63.716375666700  9.350000000000  1  # C
 17.360000000000  64.432290000000  9.350000000000  1  # C
 17.360000000000  65.864118666700  9.350000000000  1  # C
 16.120000000000  66.580033000000  9.350000000000  1  # C
 16.120000000000  68.011861666700  9.350000000000  1  # C
 14.880000000000  68.727776000000  9.350000000000  1  # C
 14.880000000000  70.159604666700  9.350000000000  1  # C
 13.640000000000  70.875519000000  9.350000000000  1  # C
 13.640000000000  72.307347666700  9.350000000000  1  # C
 12.400000000000  73.023262000000  9.350000000000  1  # C
 12.400000000000  74.455090666700  9.350000000000  1  # C
 11.160000000000  75.171005000000  9.350000000000  1  # C
 11.160000000000  76.602833666700  9.350000000000  1  # C
 9.920000000000  77.318748000000  9.350000000000  1  # C
 9.920000000000  78.750576666700  9.350000000000  1  # C
 8.680000000000  79.466491000000  9.350000000000  1  # C
 8.680000000000  80.898319666700  9.350000000000  1  # C
 7.440000000000  81.614234000000  9.350000000000  1  # C
 7.440000000000  83.046062666700  9.350000000000  1  # C
 6.200000000000  83.761977000000  9.350000000000  1  # C
 6.200000000000  85.193805666700  9.350000000000  1  # C
 4.960000000000  85.909720000000  9.350000000000  1  # C
 4.960000000000  87.341548666700  9.350000000000  1  # C
 3.720000000000  88.057463000000  9.350000000000  1  # C
 3.720000000000  89.489291666700  9.350000000000  1  # C
 2.480000000000  90.205206000000  9.350000000000  1  # C
 2.480000000000  91.637034666700  9.350000000000  1  # C
 1.240000000000  92.352949000000  9.350000000000  1  # C
 1.240000000000  93.784777666700  9.350000000000  1  # C
 0.000000000000  94.500692000000  9.350000000000  1  # C
 0.000000000000  95.932520666700  9.350000000000  1  # C
 42.160000000000  25.772916000000  9.350000000000  1  # C
 42.160000000000  27.204744666700  9.350000000000  1  # C
 40.920000000000  27.920659000000  9.350000000000  1  # C
 40.920000000000  29.352487666700  9.350000000000  1  # C
 39.680000000000  30.068402000000  9.350000000000  1  # C
 39.680000000000  31.500230666700  9.350000000000  1  # C
 38.440000000000  32.216145000000  9.350000000000  1  # C
 38.440000000000  33.647973666700  9.350000000000  1  # C
 37.200000000000  34.363888000000  9.350000000000  1  # C
 37.200000000000  35.795716666700  9.350000000000  1  # C
 35.960000000000  36.511631000000  9.350000000000  1  # C
 35.960000000000  37.943459666700  9.350000000000  1  # C
 34.720000000000  38.659374000000  9.350000000000  1  # C
 34.720000000000  40.091202666700  9.350000000000  1  # C
 33.480000000000  40.807117000000  9.350000000000  1  # C
 33.480000000000  42.238945666700  9.350000000000  1  # C
 32.240000000000  42.954860000000  9.350000000000  1  # C
 32.240000000000  44.386688666700  9.350000000000  1  # C
 31.000000000000  45.102603000000  9.350000000000  1  # C
 31.000000000000  46.534431666700  9.350000000000  1  # C
 29.760000000000  47.250346000000  9.350000000000  1  # C
 29.760000000000  48.682174666700  9.350000000000  1  # C
 28.520000000000  49.398089000000  9.350000000000  1  # C
 28.520000000000  50.829917666700  9.350000000000  1  # C
 27.280000000000  51.545832000000  9.350000000000  1  # C
 27.280000000000  52.977660666700  9.350000000000  1  # C
 26.040000000000  53.693575000000  9.350000000000  1  # C
 26.040000000000  55.125403666700  9.350000000000  1  # C
 24.800000000000  55.841318000000  9.350000000000  1  # C
 24.800000000000  57.273146666700  9.350000000000  1  # C
 23.560000000000  57.989061000000  9.350000000000  1  # C
 23.560000000000  59.420889666700  9.350000000000  1  # C
 22.320000000000  60.136804000000  9.350000000000  1  # C
 22.320000000000  61.568632666700  9.350000000000  1  # C
 21.080000000000  62.284547000000  9.350000000000  1  # C
 21.080000000000  63.716375666700  9.350000000000  1  # C
 19.840000000000  64.432290000000  9.350000000000  1  # C
 19.840000000000  65.864118666700  9.350000000000  1  # C
 18.600000000000  66.580033000000  9.350000000000  1  # C
 18.600000000000  68.011861666700  9.350000000000  1  # C
 17.360000000000  68.727776000000  9.350000000000  1  # C
 17.360000000000  70.159604666700  9.350000000000  1  # C
 16.120000000000  70.875519000000  9.350000000000  1  # C
 16.120000000000  72.307347666700  9.350000000000  1  # C
 14.880000000000  73.023262000000  9.350000000000  1  # C
 14.880000000000  74.455090666700  9.350000000000  1  # C
 13.640000000000  75.171005000000  9.350000000000  1  # C
 13.640000000000  76.602833666700  9.350000000000  1  # C
 12.400000000000  77.318748000000  9.350000000000  1  # C
 12.400000000000  78.750576666700  9.350000000000  1  # C
 11.160000000000  79.466491000000  9.350000000000  1  # C
 11.160000000000  80.898319666700  9.350000000000  1  # C
 9.920000000000  81.614234000000  9.350000000000  1  # C
 9.920000000000  83.046062666700  9.350000000000  1  # C
 8.680000000000  83.761977000000  9.350000000000  1  # C
 8.680000000000  85.193805666700  9.350000000000  1  # C
 7.440000000000  85.909720000000  9.350000000000  1  # C
 7.440000000000  87.341548666700  9.350000000000  1  # C
 6.200000000000  88.057463000000  9.350000000000  1  # C
 6.200000000000  89.489291666700  9.350000000000  1  # C
 4.960000000000  90.205206000000  9.350000000000  1  # C
 4.960000000000  91.637034666700  9.350000000000  1  # C
 3.720000000000  92.352949000000  9.350000000000  1  # C
 3.720000000000  93.784777666700  9.350000000000  1  # C
 2.480000000000  94.500692000000  9.350000000000  1  # C
 2.480000000000  95.932520666700  9.350000000000  1  # C
 1.240000000000  96.648435000000  9.350000000000  1  # C
 1.240000000000  98.080263666700  9.350000000000  1  # C
 0.000000000000  98.796178000000  9.350000000000  1  # C
 0.000000000000  100.228006666700  9.350000000000  1  # C
 44.640000000000  27.204744666700  9.350000000000  1  # C
 43.400000000000  27.920659000000  9.350000000000  1  # C
 43.400000000000  29.352487666700  9.350000000000  1  # C
 42.160000000000  30.068402000000  9.350000000000  1  # C
 42.160000000000  31.500230666700  9.350000000000  1  # C
 40.920000000000  32.216145000000  9.350000000000  1  # C
 40.920000000000  33.647973666700  9.350000000000  1  # C
 39.680000000000  34.363888000000  9.350000000000  1  # C
 39.680000000000  35.795716666700  9.350000000000  1  # C
 38.440000000000  36.511631000000  9.350000000000  1  # C
 38.440000000000  37.943459666700  9.350000000000  1  # C
 37.200000000000  38.659374000000  9.350000000000  1  # C
 37.200000000000  40.091202666700  9.350000000000  1  # C
 35.960000000000  40.807117000000  9.350000000000  1  # C
 35.960000000000  42.238945666700  9.350000000000  1  # C
 34.720000000000  42.954860000000  9.350000000000  1  # C
 34.720000000000  44.386688666700  9.350000000000  1  # C
 33.480000000000  45.102603000000  9.350000000000  1  # C
 33.480000000000  46.534431666700  9.350000000000  1  # C
 32.240000000000  47.250346000000  9.350000000000  1  # C
 32.240000000000  48.682174666700  9.350000000000  1  # C
 31.000000000000  49.398089000000  9.350000000000  1  # C
 31.000000000000  50.829917666700  9.350000000000  1  # C
 29.760000000000  51.545832000000  9.350000000000  1  # C
 29.760000000000  52.977660666700  9.350000000000  1  # C
 28.520000000000  53.693575000000  9.350000000000  1  # C
 28.520000000000  55.125403666700  9.350000000000  1  # C
 27.280000000000  55.841318000000  9.350000000000  1  # C
 27.280000000000  57.273146666700  9.350000000000  1  # C
 26.040000000000  57.989061000000  9.350000000000  1  # C
 26.040000000000  59.420889666700  9.350000000000  1  # C
 24.800000000000  60.136804000000  9.350000000000  1  # C
 24.800000000000  61.568632666700  9.350000000000  1  # C
 23.560000000000  62.284547000000  9.350000000000  1  # C
 23.560000000000  63.716375666700  9.350000000000  1  # C
 22.320000000000  64.432290000000  9.350000000000  1  # C
 22.320000000000  65.864118666700  9.350000000000  1  # C
 21.080000000000  66.580033000000  9.350000000000  1  # C
 21.080000000000  68.011861666700  9.350000000000  1  # C
 19.840000000000  68.727776000000  9.350000000000  1  # C
 19.840000000000  70.159604666700  9.350000000000  1  # C
 18.600000000000  70.875519000000  9.350000000000  1  # C
 18.600000000000  72.307347666700  9.350000000000  1  # C
 17.360000000000  73.023262000000  9.350000000000  1  # C
 17.360000000000  74.455090666700  9.350000000000  1  # C
 16.120000000000  75.171005000000  9.350000000000  1  # C
 16.120000000000  76.602833666700  9.350000000000  1  # C
 14.880000000000  77.318748000000  9.350000000000  1  # C
 14.880000000000  78.750576666700  9.350000000000  1  # C
 13.640000000000  79.466491000000  9.350000000000  1  # C
 13.640000000000  80.898319666700  9.350000000000  1  # C
 12.400000000000  81.614234000000  9.350000000000  1  # C
 12.400000000000  83.046062666700  9.350000000000  1  # C
 11.160000000000  83.761977000000  9.350000000000  1  # C
 11.160000000000  85.193805666700  9.350000000000  1  # C
 9.920000000000  85.909720000000  9.350000000000  1  # C
 9.920000000000  87.341548666700  9.350000000000  1  # C
 8.680000000000  88.057463000000  9.350000000000  1  # C
 8.680000000000  89.489291666700  9.350000000000  1  # C
 7.440000000000  90.205206000000  9.350000000000  1  # C
 7.440000000000  91.637034666700  9.350000000000  1  # C
 6.200000000000  92.352949000000  9.350000000000  1  # C
 6.200000000000  93.784777666700  9.350000000000  1  # C
 4.960000000000  94.500692000000  9.350000000000  1  # C
 4.960000000000  95.932520666700  9.350000000000  1  # C
 3.720000000000  96.648435000000  9.350000000000  1  # C
 3.720000000000  98.080263666700  9.350000000000  1  # C
 2.480000000000  98.796178000000  9.350000000000  1  # C
 2.480000000000  100.228006666700  9.350000000000  1  # C
 1.240000000000  100.943921000000  9.350000000000  1  # C
 1.240000000000  102.375749666700  9.350000000000  1  # C
 0.000000000000  103.091664000000  9.350000000000  1  # C
 0.000000000000  104.523492666700  9.350000000000  1  # C
 45.880000000000  27.920659000000  9.350000000000  1  # C
 45.880000000000  29.352487666700  9.350000000000  1  # C
 44.640000000000  30.068402000000  9.350000000000  1  # C
 44.640000000000  31.500230666700  9.350000000000  1  # C
 43.400000000000  32.216145000000  9.350000000000  1  # C
 43.400000000000  33.647973666700  9.350000000000  1  # C
 42.160000000000  34.363888000000  9.350000000000  1  # C
 42.160000000000  35.795716666700  9.350000000000  1  # C
 40.920000000000  36.511631000000  9.350000000000  1  # C
 40.920000000000  37.943459666700  9.350000000000  1  # C
 39.680000000000  38.659374000000  9.350000000000  1  # C
 39.680000000000  40.091202666700  9.350000000000  1  # C
 38.440000000000  40.807117000000  9.350000000000  1  # C
 38.440000000000  42.238945666700  9.350000000000  1  # C
 37.200000000000  42.954860000000  9.350000000000  1  # C
 37.200000000000  44.386688666700  9.350000000000  1  # C
 35.960000000000  45.102603000000  9.350000000000  1  # C
 35.960000000000  46.534431666700  9.350000000000  1  # C
 34.720000000000  47.250346000000  9.350000000000  1  # C
 34.720000000000  48.682174666700  9.350000000000  1  # C
 33.480000000000  49.398089000000  9.350000000000  1  # C
 33.480000000000  50.829917666700  9.350000000000  1  # C
 32.240000000000  51.545832000000  9.350000000000  1  # C
 32.240000000000  52.977660666700  9.350000000000  1  # C
 31.000000000000  53.693575000000  9.350000000000  1  # C
 31.000000000000  55.125403666700  9.350000000000  1  # C
 29.760000000000  55.841318000000  9.350000000000  1  # C
 29.760000000000  57.273146666700  9.350000000000  1  # C
 28.520000000000  57.989061000000  9.350000000000  1  # C
 28.520000000000  59.420889666700  9.350000000000  1  # C
 27.280000000000  60.136804000000  9.350000000000  1  # C
 27.280000000000  61.568632666700  9.350000000000  1  # C
 26.040000000000  62.284547000000  9.350000000000  1  # C
 26.040000000000  63.716375666700  9.350000000000  1  # C
 24.800000000000  64.432290000000  9.350000000000  1  # C
 24.800000000000  65.864118666700  9.350000000000  1  # C
 23.560000000000  66.580033000000  9.350000000000  1  # C
 23.560000000000  68.011861666700  9.350000000000  1  # C
 22.320000000000  68.727776000000  9.350000000000  1  # C
 22.320000000000  70.159604666700  9.350000000000  1  # C
 21.080000000000  70.875519000000  9.350000000000  1  # C
 21.080000000000  72.307347666700  9.350000000000  1  # C
 19.840000000000  73.023262000000  9.350000000000  1  # C
 19.840000000000  74.455090666700  9.350000000000  1  # C
 18.600000000000  75.171005000000  9.350000000000  1  # C
 18.600000000000  76.602833666700  9.350000000000  1  # C
 17.360000000000  77.318748000000  9.350000000000  1  # C
 17.360000000000  78.750576666700  9.350000000000  1  # C
 16.120000000000  79.466491000000  9.350000000000  1  # C
 16.120000000000  80.898319666700  9.350000000000  1  # C
 14.880000000000  81.614234000000  9.350000000000  1  # C
 14.880000000000  83.046062666700  9.350000000000  1  # C
 13.640000000000  83.761977000000  9.350000000000  1  # C
 13.640000000000  85.193805666700  9.350000000000  1  # C
 12.400000000000  85.909720000000  9.350000000000  1  # C
 12.400000000000  87.341548666700  9.350000000000  1  # C
 11.160000000000  88.057463000000  9.350000000000  1  # C
 11.160000000000  89.489291666700  9.350000000000  1  # C
 9.920000000000  90.205206000000  9.350000000000  1  # C
 9.920000000000  91.637034666700  9.350000000000  1  # C
 8.680000000000  92.352949000000  9.350000000000  1  # C
 8.680000000000  93.784777666700  9.350000000000  1  # C
 7.440000000000  94.500692000000  9.350000000000  1  # C
 7.440000000000  95.932520666700  9.350000000000  1  # C
 6.200000000000  96.648435000000  9.350000000000  1  # C
 6.200000000000  98.080263666700  9.350000000000  1  # C
 4.960000000000  98.796178000000  9.350000000000  1  # C
 4.960000000000  100.228006666700  9.350000000000  1  # C
 3.720000000000  100.943921000000  9.350000000000  1  # C
 3.720000000000  102.375749666700  9.350000000000  1  # C
 2.480000000000  103.091664000000  9.350000000000  1  # C
 2.480000000000  104.523492666700  9.350000000000  1  # C
 1.240000000000  105.239407000000  9.350000000000  1  # C
 1.240000000000  106.671235666700  9.350000000000  1  # C
 0.000000000000  107.387150000000  9.350000000000  1  # C
 0.000000000000  108.818978666700  9.350000000000  1  # C
 48.360000000000  29.352487666700  9.350000000000  1  # C
 47.120000000000  30.068402000000  9.350000000000  1  # C
 47.120000000000  31.500230666700  9.350000000000  1  # C
 45.880000000000  32.216145000000  9.350000000000  1  # C
 45.880000000000  33.647973666700  9.350000000000  1  # C
 44.640000000000  34.363888000000  9.350000000000  1  # C
 44.640000000000  35.795716666700  9.350000000000  1  # C
 43.400000000000  36.511631000000  9.350000000000  1  # C
 43.400000000000  37.943459666700  9.350000000000  1  # C
 42.160000000000  38.659374000000  9.350000000000  1  # C
 42.160000000000  40.091202666700  9.350000000000  1  # C
 40.920000000000  40.807117000000  9.350000000000  1  # C
 40.920000000000  42.238945666700  9.350000000000  1  # C
 39.680000000000  42.954860000000  9.350000000000  1  # C
 39.680000000000  44.386688666700  9.350000000000  1  # C
 38.440000000000  45.102603000000  9.350000000000  1  # C
 38.440000000000  46.534431666700  9.350000000000  1  # C
 37.200000000000  47.250346000000  9.350000000000  1  # C
 37.200000000000  48.682174666700  9.350000000000  1  # C
 35.960000000000  49.398089000000  9.350000000000  1  # C
 35.960000000000  50.829917666700  9.350000000000  1  # C
 34.720000000000  51.545832000000  9.350000000000  1  # C
 34.720000000000  52.977660666700  9.350000000000  1  # C
 33.480000000000  53.693575000000  9.350000000000  1  # C
 33.480000000000  55.125403666700  9.350000000000  1  # C
 32.240000000000  55.841318000000  9.350000000000  1  # C
 32.240000000000  57.273146666700  9.350000000000  1  # C
 31.000000000000  57.989061000000  9.350000000000  1  # C
 31.000000000000  59.420889666700  9.350000000000  1  # C
 29.760000000000  60.136804000000  9.350000000000  1  # C
 29.760000000000  61.568632666700  9.350000000000  1  # C
 28.520000000000  62.284547000000  9.350000000000  1  # C
 28.520000000000  63.716375666700  9.350000000000  1  # C
 27.280000000000  64.432290000000  9.350000000000  1  # C
 27.280000000000  65.864118666700  9.350000000000  1  # C
 26.040000000000  66.580033000000  9.350000000000  1  # C
 26.040000000000  68.011861666700  9.350000000000  1  # C
 24.800000000000  68.727776000000  9.350000000000  1  # C
 24.800000000000  70.159604666700  9.350000000000  1  # C
 23.560000000000  70.875519000000  9.350000000000  1  # C
 23.560000000000  72.307347666700  9.350000000000  1  # C
 22.320000000000  73.023262000000  9.350000000000  1  # C
 22.320000000000  74.455090666700  9.350000000000  1  # C
 21.080000000000  75.171005000000  9.350000000000  1  # C
 21.080000000000  76.602833666700  9.350000000000  1  # C
 19.840000000000  77.318748000000  9.350000000000  1  # C
 19.840000000000  78.750576666700  9.350000000000  1  # C
 18.600000000000  79.466491000000  9.350000000000  1  # C
 18.600000000000  80.898319666700  9.350000000000  1  # C
 17.360000000000  81.614234000000  9.350000000000  1  # C
 17.360000000000  83.046062666700  9.350000000000  1  # C
 16.120000000000  83.761977000000  9.350000000000  1  # C
 16.120000000000  85.193805666700  9.350000000000  1  # C
 14.880000000000  85.909720000000  9.350000000000  1  # C
 14.880000000000  87.341548666700  9.350000000000  1  # C
 13.640000000000  88.057463000000  9.350000000000  1  # C
 13.640000000000  89.489291666700  9.350000000000  1  # C
 12.400000000000  90.205206000000  9.350000000000  1  # C
 12.400000000000  91.637034666700  9.350000000000  1  # C
 11.160000000000  92.352949000000  9.350000000000  1  # C
 11.160000000000  93.784777666700  9.350000000000  1  # C
 9.920000000000  94.500692000000  9.350000000000  1  # C
 9.920000000000  95.932520666700  9.350000000000  1  # C
 8.680000000000  96.648435000000  9.350000000000  1  # C
 8.680000000000  98.080263666700  9.350000000000  1  # C
 7.440000000000  98.796178000000  9.350000000000  1  # C
 7.440000000000  100.228006666700  9.350000000000  1  # C
 6.200000000000  100.943921000000  9.350000000000  1  # C
 6.200000000000  102.375749666700  9.350000000000  1  # C
 4.960000000000  103.091664000000  9.350000000000  1  # C
 4.960000000000  104.523492666700  9.350000000000  1  # C
 3.720000000000  105.239407000000  9.350000000000  1  # C
 3.720000000000  106.671235666700  9.350000000000  1  # C
 2.480000000000  107.387150000000  9.350000000000  1  # C
 2.480000000000  108.818978666700  9.350000000000  1  # C
 1.240000000000  109.534893000000  9.350000000000  1  # C
 1.240000000000  110.966721666700  9.350000000000  1  # C
 0.000000000000  111.682636000000  9.350000000000  1  # C
 0.000000000000  113.114464666700  9.350000000000  1  # C
 49.600000000000  30.068402000000  9.350000000000  1  # C
 49.600000000000  31.500230666700  9.350000000000  1  # C
 48.360000000000  32.216145000000  9.350000000000  1  # C
 48.360000000000  33.647973666700  9.350000000000  1  # C
 47.120000000000  34.363888000000  9.350000000000  1  # C
 47.120000000000  35.795716666700  9.350000000000  1  # C
 45.880000000000  36.511631000000  9.350000000000  1  # C
 45.880000000000  37.943459666700  9.350000000000  1  # C
 44.640000000000  38.659374000000  9.350000000000  1  # C
 44.640000000000  40.091202666700  9.350000000000  1  # C
 43.400000000000  40.807117000000  9.350000000000  1  # C
 43.400000000000  42.238945666700  9.350000000000  1  # C
 42.160000000000  42.954860000000  9.350000000000  1  # C
 42.160000000000  44.386688666700  9.350000000000  1  # C
 40.920000000000  45.102603000000  9.350000000000  1  # C
 40.920000000000  46.534431666700  9.350000000000  1  # C
 39.680000000000  47.250346000000  9.350000000000  1  # C
 39.680000000000  48.682174666700  9.350000000000  1  # C
 38.440000000000  49.398089000000  9.350000000000  1  # C
 38.440000000000  50.829917666700  9.350000000000  1  # C
 37.200000000000  51.545832000000  9.350000000000  1  # C
 37.200000000000  52.977660666700  9.350000000000  1  # C
 35.960000000000  53.693575000000  9.350000000000  1  # C
 35.960000000000  55.125403666700  9.350000000000  1  # C
 34.720000000000  55.841318000000  9.350000000000  1  # C
 34.720000000000  57.273146666700  9.350000000000  1  # C
 33.480000000000  57.989061000000  9.350000000000  1  # C
 33.480000000000  59.420889666700  9.350000000000  1  # C
 32.240000000000  60.136804000000  9.350000000000  1  # C
 32.240000000000  61.568632666700  9.350000000000  1  # C
 31.000000000000  62.284547000000  9.350000000000  1  # C
 31.000000000000  63.716375666700  9.350000000000  1  # C
 29.760000000000  64.432290000000  9.350000000000  1  # C
 29.760000000000  65.864118666700  9.350000000000  1  # C
 28.520000000000  66.580033000000  9.350000000000  1  # C
 28.520000000000  68.011861666700  9.350000000000  1  # C
 27.280000000000  68.727776000000  9.350000000000  1  # C
 27.280000000000  70.159604666700  9.350000000000  1  # C
 26.040000000000  70.875519000000  9.350000000000  1  # C
 26.040000000000  72.307347666700  9.350000000000  1  # C
 24.800000000000  73.023262000000  9.350000000000  1  # C
 24.800000000000  74.455090666700  9.350000000000  1  # C
 23.560000000000  75.171005000000  9.350000000000  1  # C
 23.560000000000  76.602833666700  9.350000000000  1  # C
 22.320000000000  77.318748000000  9.350000000000  1  # C
 22.320000000000  78.750576666700  9.350000000000  1  # C
 21.080000000000  79.466491000000  9.350000000000  1  # C
 21.080000000000  80.898319666700  9.350000000000  1  # C
 19.840000000000  81.614234000000  9.350000000000  1  # C
 19.840000000000  83.046062666700  9.350000000000  1  # C
 18.600000000000  83.761977000000  9.350000000000  1  # C
 18.600000000000  85.193805666700  9.350000000000  1  # C
 17.360000000000  85.909720000000  9.350000000000  1  # C
 17.360000000000  87.341548666700  9.350000000000  1  # C
 16.120000000000  88.057463000000  9.350000000000  1  # C
 16.120000000000  89.489291666700  9.350000000000  1  # C
 14.880000000000  90.205206000000  9.350000000000  1  # C
 14.880000000000  91.637034666700  9.350000000000  1  # C
 13.640000000000  92.352949000000  9.350000000000  1  # C
 13.640000000000  93.784777666700  9.350000000000  1  # C
 12.400000000000  94.500692000000  9.350000000000  1  # C
 12.400000000000  95.932520666700  9.350000000000  1  # C
 11.160000000000  96.648435000000  9.350000000000  1  # C
 11.160000000000  98.080263666700  9.350000000000  1  # C
 9.920000000000  98.796178000000  9.350000000000  1  # C
 9.920000000000  100.228006666700  9.350000000000  1  # C
 8.680000000000  100.943921000000  9.350000000000  1  # C
 8.680000000000  102.375749666700  9.350000000000  1  # C
 7.440000000000  103.091664000000  9.350000000000  1  # C
 7.440000000000  104.523492666700  9.350000000000  1  # C
 6.200000000000  105.239407000000  9.350000000000  1  # C
 6.200000000000  106.671235666700  9.350000000000  1  # C
 4.960000000000  107.387150000000  9.350000000000  1  # C
 4.960000000000  108.818978666700  9.350000000000  1  # C
 3.720000000000  109.534893000000  9.350000000000  1  # C
 3.720000000000  110.966721666700  9.350000000000  1  # C
 2.480000000000  111.682636000000  9.350000000000  1  # C
 2.480000000000  113.114464666700  9.350000000000  1  # C
 1.240000000000  113.830379000000  9.350000000000  1  # C
 1.240000000000  115.262207666700  9.350000000000  1  # C
 0.000000000000  115.978122000000  9.350000000000  1  # C
 0.000000000000  117.409950666700  9.350000000000  1  # C
 52.080000000000  31.500230666700  9.350000000000  1  # C
 50.840000000000  32.216145000000  9.350000000000  1  # C
 50.840000000000  33.647973666700  9.350000000000  1  # C
 49.600000000000  34.363888000000  9.350000000000  1  # C
 49.600000000000  35.795716666700  9.350000000000  1  # C
 48.360000000000  36.511631000000  9.350000000000  1  # C
 48.360000000000  37.943459666700  9.350000000000  1  # C
 47.120000000000  38.659374000000  9.350000000000  1  # C
 47.120000000000  40.091202666700  9.350000000000  1  # C
 45.880000000000  40.807117000000  9.350000000000  1  # C
 45.880000000000  42.238945666700  9.350000000000  1  # C
 44.640000000000  42.954860000000  9.350000000000  1  # C
 44.640000000000  44.386688666700  9.350000000000  1  # C
 43.400000000000  45.102603000000  9.350000000000  1  # C
 43.400000000000  46.534431666700  9.350000000000  1  # C
 42.160000000000  47.250346000000  9.350000000000  1  # C
 42.160000000000  48.682174666700  9.350000000000  1  # C
 40.920000000000  49.398089000000  9.350000000000  1  # C
 40.920000000000  50.829917666700  9.350000000000  1  # C
 39.680000000000  51.545832000000  9.350000000000  1  # C
 39.680000000000  52.977660666700  9.350000000000  1  # C
 38.440000000000  53.693575000000  9.350000000000  1  # C
 38.440000000000  55.125403666700  9.350000000000  1  # C
 37.200000000000  55.841318000000  9.350000000000  1  # C
 37.200000000000  57.273146666700  9.350000000000  1  # C
 35.960000000000  57.989061000000  9.350000000000  1  # C
 35.960000000000  59.420889666700  9.350000000000  1  # C
 34.720000000000  60.136804000000  9.350000000000  1  # C
 34.720000000000  61.568632666700  9.350000000000  1  # C
 33.480000000000  62.284547000000  9.350000000000  1  # C
 33.480000000000  63.716375666700  9.350000000000  1  # C
 32.240000000000  64.432290000000  9.350000000000  1  # C
 32.240000000000  65.864118666700  9.350000000000  1  # C
 31.000000000000  66.580033000000  9.350000000000  1  # C
 31.000000000000  68.011861666700  9.350000000000  1  # C
 29.760000000000  68.727776000000  9.350000000000  1  # C
 29.760000000000  70.159604666700  9.350000000000  1  # C
 28.520000000000  70.875519000000  9.350000000000  1  # C
 28.520000000000  72.307347666700  9.350000000000  1  # C
 27.280000000000  73.023262000000  9.350000000000  1  # C
 27.280000000000  74.455090666700  9.350000000000  1  # C
 26.040000000000  75.171005000000  9.350000000000  1  # C
 26.040000000000  76.602833666700  9.350000000000  1  # C
 24.800000000000  77.318748000000  9.350000000000  1  # C
 24.800000000000  78.750576666700  9.350000000000  1  # C
 23.560000000000  79.466491000000  9.350000000000  1  # C
 23.560000000000  80.898319666700  9.350000000000  1  # C
 22.320000000000  81.614234000000  9.350000000000  1  # C
 22.320000000000  83.046062666700  9.350000000000  1  # C
 21.080000000000  83.761977000000  9.350000000000  1  # C
 21.080000000000  85.193805666700  9.350000000000  1  # C
 19.840000000000  85.909720000000  9.350000000000  1  # C
 19.840000000000  87.341548666700  9.350000000000  1  # C
 18.600000000000  88.057463000000  9.350000000000  1  # C
 18.600000000000  89.489291666700  9.350000000000  1  # C
 17.360000000000  90.205206000000  9.350000000000  1  # C
 17.360000000000  91.637034666700  9.350000000000  1  # C
 16.120000000000  92.352949000000  9.350000000000  1  # C
 16.120000000000  93.784777666700  9.350000000000  1  # C
 14.880000000000  94.500692000000  9.350000000000  1  # C
 14.880000000000  95.932520666700  9.350000000000  1  # C
 13.640000000000  96.648435000000  9.350000000000  1  # C
 13.640000000000  98.080263666700  9.350000000000  1  # C
 12.400000000000  98.796178000000  9.350000000000  1  # C
 12.400000000000  100.228006666700  9.350000000000  1  # C
 11.160000000000  100.943921000000  9.350000000000  1  # C
 11.160000000000  102.375749666700  9.350000000000  1  # C
 9.920000000000  103.091664000000  9.350000000000  1  # C
 9.920000000000  104.523492666700  9.350000000000  1  # C
 8.680000000000  105.239407000000  9.350000000000  1  # C
 8.680000000000  106.671235666700  9.350000000000  1  # C
 7.440000000000  107.387150000000  9.350000000000  1  # C
 7.440000000000  108.818978666700  9.350000000000  1  # C
 6.200000000000  109.534893000000  9.350000000000  1  # C
 6.200000000000  110.966721666700  9.350000000000  1  # C
 4.960000000000  111.682636000000  9.350000000000  1  # C
 4.960000000000  113.114464666700  9.350000000000  1  # C
 3.720000000000  113.830379000000  9.350000000000  1  # C
 3.720000000000  115.262207666700  9.350000000000  1  # C
 2.480000000000  115.978122000000  9.350000000000  1  # C
 2.480000000000  117.409950666700  9.350000000000  1  # C
 1.240000000000  118.125865000000  9.350000000000  1  # C
 1.240000000000  119.557693666700  9.350000000000  1  # C
 0.000000000000  120.273608000000  9.350000000000  1  # C
 0.000000000000  121.705436666700  9.350000000000  1  # C
 53.320000000000  32.216145000000  9.350000000000  1  # C
 53.320000000000  33.647973666700  9.350000000000  1  # C
 52.080000000000  34.363888000000  9.350000000000  1  # C
 52.080000000000  35.795716666700  9.350000000000  1  # C
 50.840000000000  36.511631000000  9.350000000000  1  # C
 50.840000000000  37.943459666700  9.350000000000  1  # C
 49.600000000000  38.659374000000  9.350000000000  1  # C
 49.600000000000  40.091202666700  9.350000000000  1  # C
 48.360000000000  40.807117000000  9.350000000000  1  # C
 48.360000000000  42.238945666700  9.350000000000  1  # C
 47.120000000000  42.954860000000  9.350000000000  1  # C
 47.120000000000  44.386688666700  9.350000000000  1  # C
 45.880000000000  45.102603000000  9.350000000000  1  # C
 45.880000000000  46.534431666700  9.350000000000  1  # C
 44.640000000000  47.250346000000  9.350000000000  1  # C
 44.640000000000  48.682174666700  9.350000000000  1  # C
 43.400000000000  49.398089000000  9.350000000000  1  # C
 43.400000000000  50.829917666700  9.350000000000  1  # C
 42.160000000000  51.545832000000  9.350000000000  1  # C
 42.160000000000  52.977660666700  9.350000000000  1  # C
 40.920000000000  53.693575000000  9.350000000000  1  # C
 40.920000000000  55.125403666700  9.350000000000  1  # C
 39.680000000000  55.841318000000  9.350000000000  1  # C
 39.680000000000  57.273146666700  9.350000000000  1  # C
 38.440000000000  57.989061000000  9.350000000000  1  # C
 38.440000000000  59.420889666700  9.350000000000  1  # C
 37.200000000000  60.136804000000  9.350000000000  1  # C
 37.200000000000  61.568632666700  9.350000000000  1  # C
 35.960000000000  62.284547000000  9.350000000000  1  # C
 35.960000000000  63.716375666700  9.350000000000  1  # C
 34.720000000000  64.432290000000  9.350000000000  1  # C
 34.720000000000  65.864118666700  9.350000000000  1  # C
 33.480000000000  66.580033000000  9.350000000000  1  # C
 33.480000000000  68.011861666700  9.350000000000  1  # C
 32.240000000000  68.727776000000  9.350000000000  1  # C
 32.240000000000  70.159604666700  9.350000000000  1  # C
 31.000000000000  70.875519000000  9.350000000000  1  # C
 31.000000000000  72.307347666700  9.350000000000  1  # C
 29.760000000000  73.023262000000  9.350000000000  1  # C
 29.760000000000  74.455090666700  9.350000000000  1  # C
 28.520000000000  75.171005000000  9.350000000000  1  # C
 28.520000000000  76.602833666700  9.350000000000  1  # C
 27.280000000000  77.318748000000  9.350000000000  1  # C
 27.280000000000  78.750576666700  9.350000000000  1  # C
 26.040000000000  79.466491000000  9.350000000000  1  # C
 26.040000000000  80.898319666700  9.350000000000  1  # C
 24.800000000000  81.614234000000  9.350000000000  1  # C
 24.800000000000  83.046062666700  9.350000000000  1  # C
 23.560000000000  83.761977000000  9.350000000000  1  # C
 23.560000000000  85.193805666700  9.350000000000  1  # C
 22.320000000000  85.909720000000  9.350000000000  1  # C
 22.320000000000  87.341548666700  9.350000000000  1  # C
 21.080000000000  88.057463000000  9.350000000000  1  # C
 21.080000000000  89.489291666700  9.350000000000  1  # C
 19.840000000000  90.205206000000  9.350000000000  1  # C
 19.840000000000  91.637034666700  9.350000000000  1  # C
 18.600000000000  92.352949000000  9.350000000000  1  # C
 18.600000000000  93.784777666700  9.350000000000  1  # C
 17.360000000000  94.500692000000  9.350000000000  1  # C
 17.360000000000  95.932520666700  9.350000000000  1  # C
 16.120000000000  96.648435000000  9.350000000000  1  # C
 16.120000000000  98.080263666700  9.350000000000  1  # C
 14.880000000000  98.796178000000  9.350000000000  1  # C
 14.880000000000  100.228006666700  9.350000000000  1  # C
 13.640000000000  100.943921000000  9.350000000000  1  # C
 13.640000000000  102.375749666700  9.350000000000  1  # C
 12.400000000000  103.091664000000  9.350000000000  1  # C
 12.400000000000  104.523492666700  9.350000000000  1  # C
 11.160000000000  105.239407000000  9.350000000000  1  # C
 11.160000000000  106.671235666700  9.350000000000  1  # C
 9.920000000000  107.387150000000  9.350000000000  1  # C
 9.920000000000  108.818978666700  9.350000000000  1  # C
 8.680000000000  109.534893000000  9.350000000000  1  # C
 8.680000000000  110.966721666700  9.350000000000  1  # C
 7.440000000000  111.682636000000  9.350000000000  1  # C
 7.440000000000  113.114464666700  9.350000000000  1  # C
 6.200000000000  113.830379000000  9.350000000000  1  # C
 6.200000000000  115.262207666700  9.350000000000  1  # C
 4.960000000000  115.978122000000  9.350000000000  1  # C
 4.960000000000  117.409950666700  9.350000000000  1  # C
 3.720000000000  118.125865000000  9.350000000000  1  # C
 3.720000000000  119.557693666700  9.350000000000  1  # C
 2.480000000000  120.273608000000  9.350000000000  1  # C
 2.480000000000  121.705436666700  9.350000000000  1  # C
 1.240000000000  122.421351000000  9.350000000000  1  # C
 1.240000000000  123.853179666700  9.350000000000  1  # C
 0.000000000000  124.569094000000  9.350000000000  1  # C
 0.000000000000  126.000922666700  9.350000000000  1  # C
 55.800000000000  33.647973666700  9.350000000000  1  # C
 54.560000000000  34.363888000000  9.350000000000  1  # C
 54.560000000000  35.795716666700  9.350000000000  1  # C
 53.320000000000  36.511631000000  9.350000000000  1  # C
 53.320000000000  37.943459666700  9.350000000000  1  # C
 52.080000000000  38.659374000000  9.350000000000  1  # C
 52.080000000000  40.091202666700  9.350000000000  1  # C
 50.840000000000  40.807117000000  9.350000000000  1  # C
 50.840000000000  42.238945666700  9.350000000000  1  # C
 49.600000000000  42.954860000000  9.350000000000  1  # C
 49.600000000000  44.386688666700  9.350000000000  1  # C
 48.360000000000  45.102603000000  9.350000000000  1  # C
 48.360000000000  46.534431666700  9.350000000000  1  # C
 47.120000000000  47.250346000000  9.350000000000  1  # C
 47.120000000000  48.682174666700  9.350000000000  1  # C
 45.880000000000  49.398089000000  9.350000000000  1  # C
 45.880000000000  50.829917666700  9.350000000000  1  # C
 44.640000000000  51.545832000000  9.350000000000  1  # C
 44.640000000000  52.977660666700  9.350000000000  1  # C
 43.400000000000  53.693575000000  9.350000000000  1  # C
 43.400000000000  55.125403666700  9.350000000000  1  # C
 42.160000000000  55.841318000000  9.350000000000  1  # C
 42.160000000000  57.273146666700  9.350000000000  1  # C
 40.920000000000  57.989061000000  9.350000000000  1  # C
 40.920000000000  59.420889666700  9.350000000000  1  # C
 39.680000000000  60.136804000000  9.350000000000  1  # C
 39.680000000000  61.568632666700  9.350000000000  1  # C
 38.440000000000  62.284547000000  9.350000000000  1  # C
 38.440000000000  63.716375666700  9.350000000000  1  # C
 37.200000000000  64.432290000000  9.350000000000  1  # C
 37.200000000000  65.864118666700  9.350000000000  1  # C
 35.960000000000  66.580033000000  9.350000000000  1  # C
 35.960000000000  68.011861666700  9.350000000000  1  # C
 34.720000000000  68.727776000000  9.350000000000  1  # C
 34.720000000000  70.159604666700  9.350000000000  1  # C
 33.480000000000  70.875519000000  9.350000000000  1  # C
 33.480000000000  72.307347666700  9.350000000000  1  # C
 32.240000000000  73.023262000000  9.350000000000  1  # C
 32.240000000000  74.455090666700  9.350000000000  1  # C
 31.000000000000  75.171005000000  9.350000000000  1  # C
 31.000000000000  76.602833666700  9.350000000000  1  # C
 29.760000000000  77.318748000000  9.350000000000  1  # C
 29.760000000000  78.750576666700  9.350000000000  1  # C
 28.520000000000  79.466491000000  9.350000000000  1  # C
 28.520000000000  80.898319666700  9.350000000000  1  # C
 27.280000000000  81.614234000000  9.350000000000  1  # C
 27.280000000000  83.046062666700  9.350000000000  1  # C
 26.040000000000  83.761977000000  9.350000000000  1  # C
 26.040000000000  85.193805666700  9.350000000000  1  # C
 24.800000000000  85.909720000000  9.350000000000  1  # C
 24.800000000000  87.341548666700  9.350000000000  1  # C
 23.560000000000  88.057463000000  9.350000000000  1  # C
 23.560000000000  89.489291666700  9.350000000000  1  # C
 22.320000000000  90.205206000000  9.350000000000  1  # C
 22.320000000000  91.637034666700  9.350000000000  1  # C
 21.080000000000  92.352949000000  9.350000000000  1  # C
 21.080000000000  93.784777666700  9.350000000000  1  # C
 19.840000000000  94.500692000000  9.350000000000  1  # C
 19.840000000000  95.932520666700  9.350000000000  1  # C
 18.600000000000  96.648435000000  9.350000000000  1  # C
 18.600000000000  98.080263666700  9.350000000000  1  # C
 17.360000000000  98.796178000000  9.350000000000  1  # C
 17.360000000000  100.228006666700  9.350000000000  1  # C
 16.120000000000  100.943921000000  9.350000000000  1  # C
 16.120000000000  102.375749666700  9.350000000000  1  # C
 14.880000000000  103.091664000000  9.350000000000  1  # C
 14.880000000000  104.523492666700  9.350000000000  1  # C
 13.640000000000  105.239407000000  9.350000000000  1  # C
 13.640000000000  106.671235666700  9.350000000000  1  # C
 12.400000000000  107.387150000000  9.350000000000  1  # C
 12.400000000000  108.818978666700  9.350000000000  1  # C
 11.160000000000  109.534893000000  9.350000000000  1  # C
 11.160000000000  110.966721666700  9.350000000000  1  # C
 9.920000000000  111.682636000000  9.350000000000  1  # C
 9.920000000000  113.114464666700  9.350000000000  1  # C
 8.680000000000  113.830379000000  9.350000000000  1  # C
 8.680000000000  115.262207666700  9.350000000000  1  # C
 7.440000000000  115.978122000000  9.350000000000  1  # C
 7.440000000000  117.409950666700  9.350000000000  1  # C
 6.200000000000  118.125865000000  9.350000000000  1  # C
 6.200000000000  119.557693666700  9.350000000000  1  # C
 4.960000000000  120.273608000000  9.350000000000  1  # C
 4.960000000000  121.705436666700  9.350000000000  1  # C
 3.720000000000  122.421351000000  9.350000000000  1  # C
 3.720000000000  123.853179666700  9.350000000000  1  # C
 2.480000000000  124.569094000000  9.350000000000  1  # C
 2.480000000000  126.000922666700  9.350000000000  1  # C
 1.240000000000  126.716837000000  9.350000000000  1  # C
 1.240000000000  128.148665666700  9.350000000000  1  # C
 0.000000000000  128.864580000000  9.350000000000  1  # C
 -0.000000000000  130.296408666700  9.350000000000  1  # C
 57.040000000000  34.363888000000  9.350000000000  1  # C
 57.040000000000  35.795716666700  9.350000000000  1  # C
 55.800000000000  36.511631000000  9.350000000000  1  # C
 55.800000000000  37.943459666700  9.350000000000  1  # C
 54.560000000000  38.659374000000  9.350000000000  1  # C
 54.560000000000  40.091202666700  9.350000000000  1  # C
 53.320000000000  40.807117000000  9.350000000000  1  # C
 53.320000000000  42.238945666700  9.350000000000  1  # C
 52.080000000000  42.954860000000  9.350000000000  1  # C
 52.080000000000  44.386688666700  9.350000000000  1  # C
 50.840000000000  45.102603000000  9.350000000000  1  # C
 50.840000000000  46.534431666700  9.350000000000  1  # C
 49.600000000000  47.250346000000  9.350000000000  1  # C
 49.600000000000  48.682174666700  9.350000000000  1  # C
 48.360000000000  49.398089000000  9.350000000000  1  # C
 48.360000000000  50.829917666700  9.350000000000  1  # C
 47.120000000000  51.545832000000  9.350000000000  1  # C
 47.120000000000  52.977660666700  9.350000000000  1  # C
 45.880000000000  53.693575000000  9.350000000000  1  # C
 45.880000000000  55.125403666700  9.350000000000  1  # C
 44.640000000000  55.841318000000  9.350000000000  1  # C
 44.640000000000  57.273146666700  9.350000000000  1  # C
 43.400000000000  57.989061000000  9.350000000000  1  # C
 43.400000000000  59.420889666700  9.350000000000  1  # C
 42.160000000000  60.136804000000  9.350000000000  1  # C
 42.160000000000  61.568632666700  9.350000000000  1  # C
 40.920000000000  62.284547000000  9.350000000000  1  # C
 40.920000000000  63.716375666700  9.350000000000  1  # C
 39.680000000000  64.432290000000  9.350000000000  1  # C
 39.680000000000  65.864118666700  9.350000000000  1  # C
 38.440000000000  66.580033000000  9.350000000000  1  # C
 38.440000000000  68.011861666700  9.350000000000  1  # C
 37.200000000000  68.727776000000  9.350000000000  1  # C
 37.200000000000  70.159604666700  9.350000000000  1  # C
 35.960000000000  70.875519000000  9.350000000000  1  # C
 35.960000000000  72.307347666700  9.350000000000  1  # C
 34.720000000000  73.023262000000  9.350000000000  1  # C
 34.720000000000  74.455090666700  9.350000000000  1  # C
 33.480000000000  75.171005000000  9.350000000000  1  # C
 33.480000000000  76.602833666700  9.350000000000  1  # C
 32.240000000000  77.318748000000  9.350000000000  1  # C
 32.240000000000  78.750576666700  9.350000000000  1  # C
 31.000000000000  79.466491000000  9.350000000000  1  # C
 31.000000000000  80.898319666700  9.350000000000  1  # C
 29.760000000000  81.614234000000  9.350000000000  1  # C
 29.760000000000  83.046062666700  9.350000000000  1  # C
 28.520000000000  83.761977000000  9.350000000000  1  # C
 28.520000000000  85.193805666700  9.350000000000  1  # C
 27.280000000000  85.909720000000  9.350000000000  1  # C
 27.280000000000  87.341548666700  9.350000000000  1  # C
 26.040000000000  88.057463000000  9.350000000000  1  # C
 26.040000000000  89.489291666700  9.350000000000  1  # C
 24.800000000000  90.205206000000  9.350000000000  1  # C
 24.800000000000  91.637034666700  9.350000000000  1  # C
 23.560000000000  92.352949000000  9.350000000000  1  # C
 23.560000000000  93.784777666700  9.350000000000  1  # C
 22.320000000000  94.500692000000  9.350000000000  1  # C
 22.320000000000  95.932520666700  9.350000000000  1  # C
 21.080000000000  96.648435000000  9.350000000000  1  # C
 21.080000000000  98.080263666700  9.350000000000  1  # C
 19.840000000000  98.796178000000  9.350000000000  1  # C
 19.840000000000  100.228006666700  9.350000000000  1  # C
 18.600000000000  100.943921000000  9.350000000000  1  # C
 18.600000000000  102.375749666700  9.350000000000  1  # C
 17.360000000000  103.091664000000  9.350000000000  1  # C
 17.360000000000  104.523492666700  9.350000000000  1  # C
 16.120000000000  105.239407000000  9.350000000000  1  # C
 16.120000000000  106.671235666700  9.350000000000  1  # C
 14.880000000000  107.387150000000  9.350000000000  1  # C
 14.880000000000  108.818978666700  9.350000000000  1  # C
 13.640000000000  109.534893000000  9.350000000000  1  # C
 13.640000000000  110.966721666700  9.350000000000  1  # C
 12.400000000000  111.682636000000  9.350000000000  1  # C
 12.400000000000  113.114464666700  9.350000000000  1  # C
 11.160000000000  113.830379000000  9.350000000000  1  # C
 11.160000000000  115.262207666700  9.350000000000  1  # C
 9.920000000000  115.978122000000  9.350000000000  1  # C
 9.920000000000  117.409950666700  9.350000000000  1  # C
 8.680000000000  118.125865000000  9.350000000000  1  # C
 8.680000000000  119.557693666700  9.350000000000  1  # C
 7.440000000000  120.273608000000  9.350000000000  1  # C
 7.440000000000  121.705436666700  9.350000000000  1  # C
 6.200000000000  122.421351000000  9.350000000000  1  # C
 6.200000000000  123.853179666700  9.350000000000  1  # C
 4.960000000000  124.569094000000  9.350000000000  1  # C
 4.960000000000  126.000922666700  9.350000000000  1  # C
 3.720000000000  126.716837000000  9.350000000000  1  # C
 3.720000000000  128.148665666700  9.350000000000  1  # C
 2.480000000000  128.864580000000  9.350000000000  1  # C
 2.480000000000  130.296408666700  9.350000000000  1  # C
 1.240000000000  131.012323000000  9.350000000000  1  # C
 1.240000000000  132.444151666700  9.350000000000  1  # C
 59.520000000000  35.795716666700  9.350000000000  1  # C
 58.280000000000  36.511631000000  9.350000000000  1  # C
 58.280000000000  37.943459666700  9.350000000000  1  # C
 57.040000000000  38.659374000000  9.350000000000  1  # C
 57.040000000000  40.091202666700  9.350000000000  1  # C
 55.800000000000  40.807117000000  9.350000000000  1  # C
 55.800000000000  42.238945666700  9.350000000000  1  # C
 54.560000000000  42.954860000000  9.350000000000  1  # C
 54.560000000000  44.386688666700  9.350000000000  1  # C
 53.320000000000  45.102603000000  9.350000000000  1  # C
 53.320000000000  46.534431666700  9.350000000000  1  # C
 52.080000000000  47.250346000000  9.350000000000  1  # C
 52.080000000000  48.682174666700  9.350000000000  1  # C
 50.840000000000  49.398089000000  9.350000000000  1  # C
 50.840000000000  50.829917666700  9.350000000000  1  # C
 49.600000000000  51.545832000000  9.350000000000  1  # C
 49.600000000000  52.977660666700  9.350000000000  1  # C
 48.360000000000  53.693575000000  9.350000000000  1  # C
 48.360000000000  55.125403666700  9.350000000000  1  # C
 47.120000000000  55.841318000000  9.350000000000  1  # C
 47.120000000000  57.273146666700  9.350000000000  1  # C
 45.880000000000  57.989061000000  9.350000000000  1  # C
 45.880000000000  59.420889666700  9.350000000000  1  # C
 44.640000000000  60.136804000000  9.350000000000  1  # C
 44.640000000000  61.568632666700  9.350000000000  1  # C
 43.400000000000  62.284547000000  9.350000000000  1  # C
 43.400000000000  63.716375666700  9.350000000000  1  # C
 42.160000000000  64.432290000000  9.350000000000  1  # C
 42.160000000000  65.864118666700  9.350000000000  1  # C
 40.920000000000  66.580033000000  9.350000000000  1  # C
 40.920000000000  68.011861666700  9.350000000000  1  # C
 39.680000000000  68.727776000000  9.350000000000  1  # C
 39.680000000000  70.159604666700  9.350000000000  1  # C
 38.440000000000  70.875519000000  9.350000000000  1  # C
 38.440000000000  72.307347666700  9.350000000000  1  # C
 37.200000000000  73.023262000000  9.350000000000  1  # C
 37.200000000000  74.455090666700  9.350000000000  1  # C
 35.960000000000  75.171005000000  9.350000000000  1  # C
 35.960000000000  76.602833666700  9.350000000000  1  # C
 34.720000000000  77.318748000000  9.350000000000  1  # C
 34.720000000000  78.750576666700  9.350000000000  1  # C
 33.480000000000  79.466491000000  9.350000000000  1  # C
 33.480000000000  80.898319666700  9.350000000000  1  # C
 32.240000000000  81.614234000000  9.350000000000  1  # C
 32.240000000000  83.046062666700  9.350000000000  1  # C
 31.000000000000  83.761977000000  9.350000000000  1  # C
 31.000000000000  85.193805666700  9.350000000000  1  # C
 29.760000000000  85.909720000000  9.350000000000  1  # C
 29.760000000000  87.341548666700  9.350000000000  1  # C
 28.520000000000  88.057463000000  9.350000000000  1  # C
 28.520000000000  89.489291666700  9.350000000000  1  # C
 27.280000000000  90.205206000000  9.350000000000  1  # C
 27.280000000000  91.637034666700  9.350000000000  1  # C
 26.040000000000  92.352949000000  9.350000000000  1  # C
 26.040000000000  93.784777666700  9.350000000000  1  # C
 24.800000000000  94.500692000000  9.350000000000  1  # C
 24.800000000000  95.932520666700  9.350000000000  1  # C
 23.560000000000  96.648435000000  9.350000000000  1  # C
 23.560000000000  98.080263666700  9.350000000000  1  # C
 22.320000000000  98.796178000000  9.350000000000  1  # C
 22.320000000000  100.228006666700  9.350000000000  1  # C
 21.080000000000  100.943921000000  9.350000000000  1  # C
 21.080000000000  102.375749666700  9.350000000000  1  # C
 19.840000000000  103.091664000000  9.350000000000  1  # C
 19.840000000000  104.523492666700  9.350000000000  1  # C
 18.600000000000  105.239407000000  9.350000000000  1  # C
 18.600000000000  106.671235666700  9.350000000000  1  # C
 17.360000000000  107.387150000000  9.350000000000  1  # C
 17.360000000000  108.818978666700  9.350000000000  1  # C
 16.120000000000  109.534893000000  9.350000000000  1  # C
 16.120000000000  110.966721666700  9.350000000000  1  # C
 14.880000000000  111.682636000000  9.350000000000  1  # C
 14.880000000000  113.114464666700  9.350000000000  1  # C
 13.640000000000  113.830379000000  9.350000000000  1  # C
 13.640000000000  115.262207666700  9.350000000000  1  # C
 12.400000000000  115.978122000000  9.350000000000  1  # C
 12.400000000000  117.409950666700  9.350000000000  1  # C
 11.160000000000  118.125865000000  9.350000000000  1  # C
 11.160000000000  119.557693666700  9.350000000000  1  # C
 9.920000000000  120.273608000000  9.350000000000  1  # C
 9.920000000000  121.705436666700  9.350000000000  1  # C
 8.680000000000  122.421351000000  9.350000000000  1  # C
 8.680000000000  123.853179666700  9.350000000000  1  # C
 7.440000000000  124.569094000000  9.350000000000  1  # C
 7.440000000000  126.000922666700  9.350000000000  1  # C
 6.200000000000  126.716837000000  9.350000000000  1  # C
 6.200000000000  128.148665666700  9.350000000000  1  # C
 4.960000000000  128.864580000000  9.350000000000  1  # C
 4.960000000000  130.296408666700  9.350000000000  1  # C
 3.720000000000  131.012323000000  9.350000000000  1  # C
 3.720000000000  132.444151666700  9.350000000000  1  # C
 2.480000000000  133.160066000000  9.350000000000  1  # C
 60.760000000000  36.511631000000  9.350000000000  1  # C
 60.760000000000  37.943459666700  9.350000000000  1  # C
 59.520000000000  38.659374000000  9.350000000000  1  # C
 59.520000000000  40.091202666700  9.350000000000  1  # C
 58.280000000000  40.807117000000  9.350000000000  1  # C
 58.280000000000  42.238945666700  9.350000000000  1  # C
 57.040000000000  42.954860000000  9.350000000000  1  # C
 57.040000000000  44.386688666700  9.350000000000  1  # C
 55.800000000000  45.102603000000  9.350000000000  1  # C
 55.800000000000  46.534431666700  9.350000000000  1  # C
 54.560000000000  47.250346000000  9.350000000000  1  # C
 54.560000000000  48.682174666700  9.350000000000  1  # C
 53.320000000000  49.398089000000  9.350000000000  1  # C
 53.320000000000  50.829917666700  9.350000000000  1  # C
 52.080000000000  51.545832000000  9.350000000000  1  # C
 52.080000000000  52.977660666700  9.350000000000  1  # C
 50.840000000000  53.693575000000  9.350000000000  1  # C
 50.840000000000  55.125403666700  9.350000000000  1  # C
 49.600000000000  55.841318000000  9.350000000000  1  # C
 49.600000000000  57.273146666700  9.350000000000  1  # C
 48.360000000000  57.989061000000  9.350000000000  1  # C
 48.360000000000  59.420889666700  9.350000000000  1  # C
 47.120000000000  60.136804000000  9.350000000000  1  # C
 47.120000000000  61.568632666700  9.350000000000  1  # C
 45.880000000000  62.284547000000  9.350000000000  1  # C
 45.880000000000  63.716375666700  9.350000000000  1  # C
 44.640000000000  64.432290000000  9.350000000000  1  # C
 44.640000000000  65.864118666700  9.350000000000  1  # C
 43.400000000000  66.580033000000  9.350000000000  1  # C
 43.400000000000  68.011861666700  9.350000000000  1  # C
 42.160000000000  68.727776000000  9.350000000000  1  # C
 42.160000000000  70.159604666700  9.350000000000  1  # C
 40.920000000000  70.875519000000  9.350000000000  1  # C
 40.920000000000  72.307347666700  9.350000000000  1  # C
 39.680000000000  73.023262000000  9.350000000000  1  # C
 39.680000000000  74.455090666700  9.350000000000  1  # C
 38.440000000000  75.171005000000  9.350000000000  1  # C
 38.440000000000  76.602833666700  9.350000000000  1  # C
 37.200000000000  77.318748000000  9.350000000000  1  # C
 37.200000000000  78.750576666700  9.350000000000  1  # C
 35.960000000000  79.466491000000  9.350000000000  1  # C
 35.960000000000  80.898319666700  9.350000000000  1  # C
 34.720000000000  81.614234000000  9.350000000000  1  # C
 34.720000000000  83.046062666700  9.350000000000  1  # C
 33.480000000000  83.761977000000  9.350000000000  1  # C
 33.480000000000  85.193805666700  9.350000000000  1  # C
 32.240000000000  85.909720000000  9.350000000000  1  # C
 32.240000000000  87.341548666700  9.350000000000  1  # C
 31.000000000000  88.057463000000  9.350000000000  1  # C
 31.000000000000  89.489291666700  9.350000000000  1  # C
 29.760000000000  90.205206000000  9.350000000000  1  # C
 29.760000000000  91.637034666700  9.350000000000  1  # C
 28.520000000000  92.352949000000  9.350000000000  1  # C
 28.520000000000  93.784777666700  9.350000000000  1  # C
 27.280000000000  94.500692000000  9.350000000000  1  # C
 27.280000000000  95.932520666700  9.350000000000  1  # C
 26.040000000000  96.648435000000  9.350000000000  1  # C
 26.040000000000  98.080263666700  9.350000000000  1  # C
 24.800000000000  98.796178000000  9.350000000000  1  # C
 24.800000000000  100.228006666700  9.350000000000  1  # C
 23.560000000000  100.943921000000  9.350000000000  1  # C
 23.560000000000  102.375749666700  9.350000000000  1  # C
 22.320000000000  103.091664000000  9.350000000000  1  # C
 22.320000000000  104.523492666700  9.350000000000  1  # C
 21.080000000000  105.239407000000  9.350000000000  1  # C
 21.080000000000  106.671235666700  9.350000000000  1  # C
 19.840000000000  107.387150000000  9.350000000000  1  # C
 19.840000000000  108.818978666700  9.350000000000  1  # C
 18.600000000000  109.534893000000  9.350000000000  1  # C
 18.600000000000  110.966721666700  9.350000000000  1  # C
 17.360000000000  111.682636000000  9.350000000000  1  # C
 17.360000000000  113.114464666700  9.350000000000  1  # C
 16.120000000000  113.830379000000  9.350000000000  1  # C
 16.120000000000  115.262207666700  9.350000000000  1  # C
 14.880000000000  115.978122000000  9.350000000000  1  # C
 14.880000000000  117.409950666700  9.350000000000  1  # C
 13.640000000000  118.125865000000  9.350000000000  1  # C
 13.640000000000  119.557693666700  9.350000000000  1  # C
 12.400000000000  120.273608000000  9.350000000000  1  # C
 12.400000000000  121.705436666700  9.350000000000  1  # C
 11.160000000000  122.421351000000  9.350000000000  1  # C
 11.160000000000  123.853179666700  9.350000000000  1  # C
 9.920000000000  124.569094000000  9.350000000000  1  # C
 9.920000000000  126.000922666700  9.350000000000  1  # C
 8.680000000000  126.716837000000  9.350000000000  1  # C
 8.680000000000  128.148665666700  9.350000000000  1  # C
 7.440000000000  128.864580000000  9.350000000000  1  # C
 7.440000000000  130.296408666700  9.350000000000  1  # C
 6.200000000000  131.012323000000  9.350000000000  1  # C
 6.200000000000  132.444151666700  9.350000000000  1  # C
 4.960000000000  133.160066000000  9.350000000000  1  # C
 4.960000000000  134.591894666700  9.350000000000  1  # C
 63.240000000000  37.943459666700  9.350000000000  1  # C
 62.000000000000  38.659374000000  9.350000000000  1  # C
 62.000000000000  40.091202666700  9.350000000000  1  # C
 60.760000000000  40.807117000000  9.350000000000  1  # C
 60.760000000000  42.238945666700  9.350000000000  1  # C
 59.520000000000  42.954860000000  9.350000000000  1  # C
 59.520000000000  44.386688666700  9.350000000000  1  # C
 58.280000000000  45.102603000000  9.350000000000  1  # C
 58.280000000000  46.534431666700  9.350000000000  1  # C
 57.040000000000  47.250346000000  9.350000000000  1  # C
 57.040000000000  48.682174666700  9.350000000000  1  # C
 55.800000000000  49.398089000000  9.350000000000  1  # C
 55.800000000000  50.829917666700  9.350000000000  1  # C
 54.560000000000  51.545832000000  9.350000000000  1  # C
 54.560000000000  52.977660666700  9.350000000000  1  # C
 53.320000000000  53.693575000000  9.350000000000  1  # C
 53.320000000000  55.125403666700  9.350000000000  1  # C
 52.080000000000  55.841318000000  9.350000000000  1  # C
 52.080000000000  57.273146666700  9.350000000000  1  # C
 50.840000000000  57.989061000000  9.350000000000  1  # C
 50.840000000000  59.420889666700  9.350000000000  1  # C
 49.600000000000  60.136804000000  9.350000000000  1  # C
 49.600000000000  61.568632666700  9.350000000000  1  # C
 48.360000000000  62.284547000000  9.350000000000  1  # C
 48.360000000000  63.716375666700  9.350000000000  1  # C
 47.120000000000  64.432290000000  9.350000000000  1  # C
 47.120000000000  65.864118666700  9.350000000000  1  # C
 45.880000000000  66.580033000000  9.350000000000  1  # C
 45.880000000000  68.011861666700  9.350000000000  1  # C
 44.640000000000  68.727776000000  9.350000000000  1  # C
 44.640000000000  70.159604666700  9.350000000000  1  # C
 43.400000000000  70.875519000000  9.350000000000  1  # C
 43.400000000000  72.307347666700  9.350000000000  1  # C
 42.160000000000  73.023262000000  9.350000000000  1  # C
 42.160000000000  74.455090666700  9.350000000000  1  # C
 40.920000000000  75.171005000000  9.350000000000  1  # C
 40.920000000000  76.602833666700  9.350000000000  1  # C
 39.680000000000  77.318748000000  9.350000000000  1  # C
 39.680000000000  78.750576666700  9.350000000000  1  # C
 38.440000000000  79.466491000000  9.350000000000  1  # C
 38.440000000000  80.898319666700  9.350000000000  1  # C
 37.200000000000  81.614234000000  9.350000000000  1  # C
 37.200000000000  83.046062666700  9.350000000000  1  # C
 35.960000000000  83.761977000000  9.350000000000  1  # C
 35.960000000000  85.193805666700  9.350000000000  1  # C
 34.720000000000  85.909720000000  9.350000000000  1  # C
 34.720000000000  87.341548666700  9.350000000000  1  # C
 33.480000000000  88.057463000000  9.350000000000  1  # C
 33.480000000000  89.489291666700  9.350000000000  1  # C
 32.240000000000  90.205206000000  9.350000000000  1  # C
 32.240000000000  91.637034666700  9.350000000000  1  # C
 31.000000000000  92.352949000000  9.350000000000  1  # C
 31.000000000000  93.784777666700  9.350000000000  1  # C
 29.760000000000  94.500692000000  9.350000000000  1  # C
 29.760000000000  95.932520666700  9.350000000000  1  # C
 28.520000000000  96.648435000000  9.350000000000  1  # C
 28.520000000000  98.080263666700  9.350000000000  1  # C
 27.280000000000  98.796178000000  9.350000000000  1  # C
 27.280000000000  100.228006666700  9.350000000000  1  # C
 26.040000000000  100.943921000000  9.350000000000  1  # C
 26.040000000000  102.375749666700  9.350000000000  1  # C
 24.800000000000  103.091664000000  9.350000000000  1  # C
 24.800000000000  104.523492666700  9.350000000000  1  # C
 23.560000000000  105.239407000000  9.350000000000  1  # C
 23.560000000000  106.671235666700  9.350000000000  1  # C
 22.320000000000  107.387150000000  9.350000000000  1  # C
 22.320000000000  108.818978666700  9.350000000000  1  # C
 21.080000000000  109.534893000000  9.350000000000  1  # C
 21.080000000000  110.966721666700  9.350000000000  1  # C
 19.840000000000  111.682636000000  9.350000000000  1  # C
 19.840000000000  113.114464666700  9.350000000000  1  # C
 18.600000000000  113.830379000000  9.350000000000  1  # C
 18.600000000000  115.262207666700  9.350000000000  1  # C
 17.360000000000  115.978122000000  9.350000000000  1  # C
 17.360000000000  117.409950666700  9.350000000000  1  # C
 16.120000000000  118.125865000000  9.350000000000  1  # C
 16.120000000000  119.557693666700  9.350000000000  1  # C
 14.880000000000  120.273608000000  9.350000000000  1  # C
 14.880000000000  121.705436666700  9.350000000000  1  # C
 13.640000000000  122.421351000000  9.350000000000  1  # C
 13.640000000000  123.853179666700  9.350000000000  1  # C
 12.400000000000  124.569094000000  9.350000000000  1  # C
 12.400000000000  126.000922666700  9.350000000000  1  # C
 11.160000000000  126.716837000000  9.350000000000  1  # C
 11.160000000000  128.148665666700  9.350000000000  1  # C
 9.920000000000  128.864580000000  9.350000000000  1  # C
 9.920000000000  130.296408666700  9.350000000000  1  # C
 8.680000000000  131.012323000000  9.350000000000  1  # C
 8.680000000000  132.444151666700  9.350000000000  1  # C
 7.440000000000  133.160066000000  9.350000000000  1  # C
 7.440000000000  134.591894666700  9.350000000000  1  # C
 6.200000000000  135.307809000000  9.350000000000  1  # C
 64.480000000000  38.659374000000  9.350000000000  1  # C
 64.480000000000  40.091202666700  9.350000000000  1  # C
 63.240000000000  40.807117000000  9.350000000000  1  # C
 63.240000000000  42.238945666700  9.350000000000  1  # C
 62.000000000000  42.954860000000  9.350000000000  1  # C
 62.000000000000  44.386688666700  9.350000000000  1  # C
 60.760000000000  45.102603000000  9.350000000000  1  # C
 60.760000000000  46.534431666700  9.350000000000  1  # C
 59.520000000000  47.250346000000  9.350000000000  1  # C
 59.520000000000  48.682174666700  9.350000000000  1  # C
 58.280000000000  49.398089000000  9.350000000000  1  # C
 58.280000000000  50.829917666700  9.350000000000  1  # C
 57.040000000000  51.545832000000  9.350000000000  1  # C
 57.040000000000  52.977660666700  9.350000000000  1  # C
 55.800000000000  53.693575000000  9.350000000000  1  # C
 55.800000000000  55.125403666700  9.350000000000  1  # C
 54.560000000000  55.841318000000  9.350000000000  1  # C
 54.560000000000  57.273146666700  9.350000000000  1  # C
 53.320000000000  57.989061000000  9.350000000000  1  # C
 53.320000000000  59.420889666700  9.350000000000  1  # C
 52.080000000000  60.136804000000  9.350000000000  1  # C
 52.080000000000  61.568632666700  9.350000000000  1  # C
 50.840000000000  62.284547000000  9.350000000000  1  # C
 50.840000000000  63.716375666700  9.350000000000  1  # C
 49.600000000000  64.432290000000  9.350000000000  1  # C
 49.600000000000  65.864118666700  9.350000000000  1  # C
 48.360000000000  66.580033000000  9.350000000000  1  # C
 48.360000000000  68.011861666700  9.350000000000  1  # C
 47.120000000000  68.727776000000  9.350000000000  1  # C
 47.120000000000  70.159604666700  9.350000000000  1  # C
 45.880000000000  70.875519000000  9.350000000000  1  # C
 45.880000000000  72.307347666700  9.350000000000  1  # C
 44.640000000000  73.023262000000  9.350000000000  1  # C
 44.640000000000  74.455090666700  9.350000000000  1  # C
 43.400000000000  75.171005000000  9.350000000000  1  # C
 43.400000000000  76.602833666700  9.350000000000  1  # C
 42.160000000000  77.318748000000  9.350000000000  1  # C
 42.160000000000  78.750576666700  9.350000000000  1  # C
 40.920000000000  79.466491000000  9.350000000000  1  # C
 40.920000000000  80.898319666700  9.350000000000  1  # C
 39.680000000000  81.614234000000  9.350000000000  1  # C
 39.680000000000  83.046062666700  9.350000000000  1  # C
 38.440000000000  83.761977000000  9.350000000000  1  # C
 38.440000000000  85.193805666700  9.350000000000  1  # C
 37.200000000000  85.909720000000  9.350000000000  1  # C
 37.200000000000  87.341548666700  9.350000000000  1  # C
 35.960000000000  88.057463000000  9.350000000000  1  # C
 35.960000000000  89.489291666700  9.350000000000  1  # C
 34.720000000000  90.205206000000  9.350000000000  1  # C
 34.720000000000  91.637034666700  9.350000000000  1  # C
 33.480000000000  92.352949000000  9.350000000000  1  # C
 33.480000000000  93.784777666700  9.350000000000  1  # C
 32.240000000000  94.500692000000  9.350000000000  1  # C
 32.240000000000  95.932520666700  9.350000000000  1  # C
 31.000000000000  96.648435000000  9.350000000000  1  # C
 31.000000000000  98.080263666700  9.350000000000  1  # C
 29.760000000000  98.796178000000  9.350000000000  1  # C
 29.760000000000  100.228006666700  9.350000000000  1  # C
 28.520000000000  100.943921000000  9.350000000000  1  # C
 28.520000000000  102.375749666700  9.350000000000  1  # C
 27.280000000000  103.091664000000  9.350000000000  1  # C
 27.280000000000  104.523492666700  9.350000000000  1  # C
 26.040000000000  105.239407000000  9.350000000000  1  # C
 26.040000000000  106.671235666700  9.350000000000  1  # C
 24.800000000000  107.387150000000  9.350000000000  1  # C
 24.800000000000  108.818978666700  9.350000000000  1  # C
 23.560000000000  109.534893000000  9.350000000000  1  # C
 23.560000000000  110.966721666700  9.350000000000  1  # C
 22.320000000000  111.682636000000  9.350000000000  1  # C
 22.320000000000  113.114464666700  9.350000000000  1  # C
 21.080000000000  113.830379000000  9.350000000000  1  # C
 21.080000000000  115.262207666700  9.350000000000  1  # C
 19.840000000000  115.978122000000  9.350000000000  1  # C
 19.840000000000  117.409950666700  9.350000000000  1  # C
 18.600000000000  118.125865000000  9.350000000000  1  # C
 18.600000000000  119.557693666700  9.350000000000  1  # C
 17.360000000000  120.273608000000  9.350000000000  1  # C
 17.360000000000  121.705436666700  9.350000000000  1  # C
 16.120000000000  122.421351000000  9.350000000000  1  # C
 16.120000000000  123.853179666700  9.350000000000  1  # C
 14.880000000000  124.569094000000  9.350000000000  1  # C
 14.880000000000  126.000922666700  9.350000000000  1  # C
 13.640000000000  126.716837000000  9.350000000000  1  # C
 13.640000000000  128.148665666700  9.350000000000  1  # C
 12.400000000000  128.864580000000  9.350000000000  1  # C
 12.400000000000  130.296408666700  9.350000000000  1  # C
 11.160000000000  131.012323000000  9.350000000000  1  # C
 11.160000000000  132.444151666700  9.350000000000  1  # C
 9.920000000000  133.160066000000  9.350000000000  1  # C
 9.920000000000  134.591894666700  9.350000000000  1  # C
 8.680000000000  135.307809000000  9.350000000000  1  # C
 8.680000000000  136.739637666700  9.350000000000  1  # C
 66.960000000000  40.091202666700  9.350000000000  1  # C
 65.720000000000  40.807117000000  9.350000000000  1  # C
 65.720000000000  42.238945666700  9.350000000000  1  # C
 64.480000000000  42.954860000000  9.350000000000  1  # C
 64.480000000000  44.386688666700  9.350000000000  1  # C
 63.240000000000  45.102603000000  9.350000000000  1  # C
 63.240000000000  46.534431666700  9.350000000000  1  # C
 62.000000000000  47.250346000000  9.350000000000  1  # C
 62.000000000000  48.682174666700  9.350000000000  1  # C
 60.760000000000  49.398089000000  9.350000000000  1  # C
 60.760000000000  50.829917666700  9.350000000000  1  # C
 59.520000000000  51.545832000000  9.350000000000  1  # C
 59.520000000000  52.977660666700  9.350000000000  1  # C
 58.280000000000  53.693575000000  9.350000000000  1  # C
 58.280000000000  55.125403666700  9.350000000000  1  # C
 57.040000000000  55.841318000000  9.350000000000  1  # C
 57.040000000000  57.273146666700  9.350000000000  1  # C
 55.800000000000  57.989061000000  9.350000000000  1  # C
 55.800000000000  59.420889666700  9.350000000000  1  # C
 54.560000000000  60.136804000000  9.350000000000  1  # C
 54.560000000000  61.568632666700  9.350000000000  1  # C
 53.320000000000  62.284547000000  9.350000000000  1  # C
 53.320000000000  63.716375666700  9.350000000000  1  # C
 52.080000000000  64.432290000000  9.350000000000  1  # C
 52.080000000000  65.864118666700  9.350000000000  1  # C
 50.840000000000  66.580033000000  9.350000000000  1  # C
 50.840000000000  68.011861666700  9.350000000000  1  # C
 49.600000000000  68.727776000000  9.350000000000  1  # C
 49.600000000000  70.159604666700  9.350000000000  1  # C
 48.360000000000  70.875519000000  9.350000000000  1  # C
 48.360000000000  72.307347666700  9.350000000000  1  # C
 47.120000000000  73.023262000000  9.350000000000  1  # C
 47.120000000000  74.455090666700  9.350000000000  1  # C
 45.880000000000  75.171005000000  9.350000000000  1  # C
 45.880000000000  76.602833666700  9.350000000000  1  # C
 44.640000000000  77.318748000000  9.350000000000  1  # C
 44.640000000000  78.750576666700  9.350000000000  1  # C
 43.400000000000  79.466491000000  9.350000000000  1  # C
 43.400000000000  80.898319666700  9.350000000000  1  # C
 42.160000000000  81.614234000000  9.350000000000  1  # C
 42.160000000000  83.046062666700  9.350000000000  1  # C
 40.920000000000  83.761977000000  9.350000000000  1  # C
 40.920000000000  85.193805666700  9.350000000000  1  # C
 39.680000000000  85.909720000000  9.350000000000  1  # C
 39.680000000000  87.341548666700  9.350000000000  1  # C
 38.440000000000  88.057463000000  9.350000000000  1  # C
 38.440000000000  89.489291666700  9.350000000000  1  # C
 37.200000000000  90.205206000000  9.350000000000  1  # C
 37.200000000000  91.637034666700  9.350000000000  1  # C
 35.960000000000  92.352949000000  9.350000000000  1  # C
 35.960000000000  93.784777666700  9.350000000000  1  # C
 34.720000000000  94.500692000000  9.350000000000  1  # C
 34.720000000000  95.932520666700  9.350000000000  1  # C
 33.480000000000  96.648435000000  9.350000000000  1  # C
 33.480000000000  98.080263666700  9.350000000000  1  # C
 32.240000000000  98.796178000000  9.350000000000  1  # C
 32.240000000000  100.228006666700  9.350000000000  1  # C
 31.000000000000  100.943921000000  9.350000000000  1  # C
 31.000000000000  102.375749666700  9.350000000000  1  # C
 29.760000000000  103.091664000000  9.350000000000  1  # C
 29.760000000000  104.523492666700  9.350000000000  1  # C
 28.520000000000  105.239407000000  9.350000000000  1  # C
 28.520000000000  106.671235666700  9.350000000000  1  # C
 27.280000000000  107.387150000000  9.350000000000  1  # C
 27.280000000000  108.818978666700  9.350000000000  1  # C
 26.040000000000  109.534893000000  9.350000000000  1  # C
 26.040000000000  110.966721666700  9.350000000000  1  # C
 24.800000000000  111.682636000000  9.350000000000  1  # C
 24.800000000000  113.114464666700  9.350000000000  1  # C
 23.560000000000  113.830379000000  9.350000000000  1  # C
 23.560000000000  115.262207666700  9.350000000000  1  # C
 22.320000000000  115.978122000000  9.350000000000  1  # C
 22.320000000000  117.409950666700  9.350000000000  1  # C
 21.080000000000  118.125865000000  9.350000000000  1  # C
 21.080000000000  119.557693666700  9.350000000000  1  # C
 19.840000000000  120.273608000000  9.350000000000  1  # C
 19.840000000000  121.705436666700  9.350000000000  1  # C
 18.600000000000  122.421351000000  9.350000000000  1  # C
 18.600000000000  123.853179666700  9.350000000000  1  # C
 17.360000000000  124.569094000000  9.350000000000  1  # C
 17.360000000000  126.000922666700  9.350000000000  1  # C
 16.120000000000  126.716837000000  9.350000000000  1  # C
 16.120000000000  128.148665666700  9.350000000000  1  # C
 14.880000000000  128.864580000000  9.350000000000  1  # C
 14.880000000000  130.296408666700  9.350000000000  1  # C
 13.640000000000  131.012323000000  9.350000000000  1  # C
 13.640000000000  132.444151666700  9.350000000000  1  # C
 12.400000000000  133.160066000000  9.350000000000  1  # C
 12.400000000000  134.591894666700  9.350000000000  1  # C
 11.160000000000  135.307809000000  9.350000000000  1  # C
 11.160000000000  136.739637666700  9.350000000000  1  # C
 9.920000000000  137.455552000000  9.350000000000  1  # C
 68.200000000000  40.807117000000  9.350000000000  1  # C
 68.200000000000  42.238945666700  9.350000000000  1  # C
 66.960000000000  42.954860000000  9.350000000000  1  # C
 66.960000000000  44.386688666700  9.350000000000  1  # C
 65.720000000000  45.102603000000  9.350000000000  1  # C
 65.720000000000  46.534431666700  9.350000000000  1  # C
 64.480000000000  47.250346000000  9.350000000000  1  # C
 64.480000000000  48.682174666700  9.350000000000  1  # C
 63.240000000000  49.398089000000  9.350000000000  1  # C
 63.240000000000  50.829917666700  9.350000000000  1  # C
 62.000000000000  51.545832000000  9.350000000000  1  # C
 62.000000000000  52.977660666700  9.350000000000  1  # C
 60.760000000000  53.693575000000  9.350000000000  1  # C
 60.760000000000  55.125403666700  9.350000000000  1  # C
 59.520000000000  55.841318000000  9.350000000000  1  # C
 59.520000000000  57.273146666700  9.350000000000  1  # C
 58.280000000000  57.989061000000  9.350000000000  1  # C
 58.280000000000  59.420889666700  9.350000000000  1  # C
 57.040000000000  60.136804000000  9.350000000000  1  # C
 57.040000000000  61.568632666700  9.350000000000  1  # C
 55.800000000000  62.284547000000  9.350000000000  1  # C
 55.800000000000  63.716375666700  9.350000000000  1  # C
 54.560000000000  64.432290000000  9.350000000000  1  # C
 54.560000000000  65.864118666700  9.350000000000  1  # C
 53.320000000000  66.580033000000  9.350000000000  1  # C
 53.320000000000  68.011861666700  9.350000000000  1  # C
 52.080000000000  68.727776000000  9.350000000000  1  # C
 52.080000000000  70.159604666700  9.350000000000  1  # C
 50.840000000000  70.875519000000  9.350000000000  1  # C
 50.840000000000  72.307347666700  9.350000000000  1  # C
 49.600000000000  73.023262000000  9.350000000000  1  # C
 49.600000000000  74.455090666700  9.350000000000  1  # C
 48.360000000000  75.171005000000  9.350000000000  1  # C
 48.360000000000  76.602833666700  9.350000000000  1  # C
 47.120000000000  77.318748000000  9.350000000000  1  # C
 47.120000000000  78.750576666700  9.350000000000  1  # C
 45.880000000000  79.466491000000  9.350000000000  1  # C
 45.880000000000  80.898319666700  9.350000000000  1  # C
 44.640000000000  81.614234000000  9.350000000000  1  # C
 44.640000000000  83.046062666700  9.350000000000  1  # C
 43.400000000000  83.761977000000  9.350000000000  1  # C
 43.400000000000  85.193805666700  9.350000000000  1  # C
 42.160000000000  85.909720000000  9.350000000000  1  # C
 42.160000000000  87.341548666700  9.350000000000  1  # C
 40.920000000000  88.057463000000  9.350000000000  1  # C
 40.920000000000  89.489291666700  9.350000000000  1  # C
 39.680000000000  90.205206000000  9.350000000000  1  # C
 39.680000000000  91.637034666700  9.350000000000  1  # C
 38.440000000000  92.352949000000  9.350000000000  1  # C
 38.440000000000  93.784777666700  9.350000000000  1  # C
 37.200000000000  94.500692000000  9.350000000000  1  # C
 37.200000000000  95.932520666700  9.350000000000  1  # C
 35.960000000000  96.648435000000  9.350000000000  1  # C
 35.960000000000  98.080263666700  9.350000000000  1  # C
 34.720000000000  98.796178000000  9.350000000000  1  # C
 34.720000000000  100.228006666700  9.350000000000  1  # C
 33.480000000000  100.943921000000  9.350000000000  1  # C
 33.480000000000  102.375749666700  9.350000000000  1  # C
 32.240000000000  103.091664000000  9.350000000000  1  # C
 32.240000000000  104.523492666700  9.350000000000  1  # C
 31.000000000000  105.239407000000  9.350000000000  1  # C
 31.000000000000  106.671235666700  9.350000000000  1  # C
 29.760000000000  107.387150000000  9.350000000000  1  # C
 29.760000000000  108.818978666700  9.350000000000  1  # C
 28.520000000000  109.534893000000  9.350000000000  1  # C
 28.520000000000  110.966721666700  9.350000000000  1  # C
 27.280000000000  111.682636000000  9.350000000000  1  # C
 27.280000000000  113.114464666700  9.350000000000  1  # C
 26.040000000000  113.830379000000  9.350000000000  1  # C
 26.040000000000  115.262207666700  9.350000000000  1  # C
 24.800000000000  115.978122000000  9.350000000000  1  # C
 24.800000000000  117.409950666700  9.350000000000  1  # C
 23.560000000000  118.125865000000  9.350000000000  1  # C
 23.560000000000  119.557693666700  9.350000000000  1  # C
 22.320000000000  120.273608000000  9.350000000000  1  # C
 22.320000000000  121.705436666700  9.350000000000  1  # C
 21.080000000000  122.421351000000  9.350000000000  1  # C
 21.080000000000  123.853179666700  9.350000000000  1  # C
 19.840000000000  124.569094000000  9.350000000000  1  # C
 19.840000000000  126.000922666700  9.350000000000  1  # C
 18.600000000000  126.716837000000  9.350000000000  1  # C
 18.600000000000  128.148665666700  9.350000000000  1  # C
 17.360000000000  128.864580000000  9.350000000000  1  # C
 17.360000000000  130.296408666700  9.350000000000  1  # C
 16.120000000000  131.012323000000  9.350000000000  1  # C
 16.120000000000  132.444151666700  9.350000000000  1  # C
 14.880000000000  133.160066000000  9.350000000000  1  # C
 14.880000000000  134.591894666700  9.350000000000  1  # C
 13.640000000000  135.307809000000  9.350000000000  1  # C
 13.640000000000  136.739637666700  9.350000000000  1  # C
 12.400000000000  137.455552000000  9.350000000000  1  # C
 12.400000000000  138.887380666700  9.350000000000  1  # C
 70.680000000000  42.238945666700  9.350000000000  1  # C
 69.440000000000  42.954860000000  9.350000000000  1  # C
 69.440000000000  44.386688666700  9.350000000000  1  # C
 68.200000000000  45.102603000000  9.350000000000  1  # C
 68.200000000000  46.534431666700  9.350000000000  1  # C
 66.960000000000  47.250346000000  9.350000000000  1  # C
 66.960000000000  48.682174666700  9.350000000000  1  # C
 65.720000000000  49.398089000000  9.350000000000  1  # C
 65.720000000000  50.829917666700  9.350000000000  1  # C
 64.480000000000  51.545832000000  9.350000000000  1  # C
 64.480000000000  52.977660666700  9.350000000000  1  # C
 63.240000000000  53.693575000000  9.350000000000  1  # C
 63.240000000000  55.125403666700  9.350000000000  1  # C
 62.000000000000  55.841318000000  9.350000000000  1  # C
 62.000000000000  57.273146666700  9.350000000000  1  # C
 60.760000000000  57.989061000000  9.350000000000  1  # C
 60.760000000000  59.420889666700  9.350000000000  1  # C
 59.520000000000  60.136804000000  9.350000000000  1  # C
 59.520000000000  61.568632666700  9.350000000000  1  # C
 58.280000000000  62.284547000000  9.350000000000  1  # C
 58.280000000000  63.716375666700  9.350000000000  1  # C
 57.040000000000  64.432290000000  9.350000000000  1  # C
 57.040000000000  65.864118666700  9.350000000000  1  # C
 55.800000000000  66.580033000000  9.350000000000  1  # C
 55.800000000000  68.011861666700  9.350000000000  1  # C
 54.560000000000  68.727776000000  9.350000000000  1  # C
 54.560000000000  70.159604666700  9.350000000000  1  # C
 53.320000000000  70.875519000000  9.350000000000  1  # C
 53.320000000000  72.307347666700  9.350000000000  1  # C
 52.080000000000  73.023262000000  9.350000000000  1  # C
 52.080000000000  74.455090666700  9.350000000000  1  # C
 50.840000000000  75.171005000000  9.350000000000  1  # C
 50.840000000000  76.602833666700  9.350000000000  1  # C
 49.600000000000  77.318748000000  9.350000000000  1  # C
 49.600000000000  78.750576666700  9.350000000000  1  # C
 48.360000000000  79.466491000000  9.350000000000  1  # C
 48.360000000000  80.898319666700  9.350000000000  1  # C
 47.120000000000  81.614234000000  9.350000000000  1  # C
 47.120000000000  83.046062666700  9.350000000000  1  # C
 45.880000000000  83.761977000000  9.350000000000  1  # C
 45.880000000000  85.193805666700  9.350000000000  1  # C
 44.640000000000  85.909720000000  9.350000000000  1  # C
 44.640000000000  87.341548666700  9.350000000000  1  # C
 43.400000000000  88.057463000000  9.350000000000  1  # C
 43.400000000000  89.489291666700  9.350000000000  1  # C
 42.160000000000  90.205206000000  9.350000000000  1  # C
 42.160000000000  91.637034666700  9.350000000000  1  # C
 40.920000000000  92.352949000000  9.350000000000  1  # C
 40.920000000000  93.784777666700  9.350000000000  1  # C
 39.680000000000  94.500692000000  9.350000000000  1  # C
 39.680000000000  95.932520666700  9.350000000000  1  # C
 38.440000000000  96.648435000000  9.350000000000  1  # C
 38.440000000000  98.080263666700  9.350000000000  1  # C
 37.200000000000  98.796178000000  9.350000000000  1  # C
 37.200000000000  100.228006666700  9.350000000000  1  # C
 35.960000000000  100.943921000000  9.350000000000  1  # C
 35.960000000000  102.375749666700  9.350000000000  1  # C
 34.720000000000  103.091664000000  9.350000000000  1  # C
 34.720000000000  104.523492666700  9.350000000000  1  # C
 33.480000000000  105.239407000000  9.350000000000  1  # C
 33.480000000000  106.671235666700  9.350000000000  1  # C
 32.240000000000  107.387150000000  9.350000000000  1  # C
 32.240000000000  108.818978666700  9.350000000000  1  # C
 31.000000000000  109.534893000000  9.350000000000  1  # C
 31.000000000000  110.966721666700  9.350000000000  1  # C
 29.760000000000  111.682636000000  9.350000000000  1  # C
 29.760000000000  113.114464666700  9.350000000000  1  # C
 28.520000000000  113.830379000000  9.350000000000  1  # C
 28.520000000000  115.262207666700  9.350000000000  1  # C
 27.280000000000  115.978122000000  9.350000000000  1  # C
 27.280000000000  117.409950666700  9.350000000000  1  # C
 26.040000000000  118.125865000000  9.350000000000  1  # C
 26.040000000000  119.557693666700  9.350000000000  1  # C
 24.800000000000  120.273608000000  9.350000000000  1  # C
 24.800000000000  121.705436666700  9.350000000000  1  # C
 23.560000000000  122.421351000000  9.350000000000  1  # C
 23.560000000000  123.853179666700  9.350000000000  1  # C
 22.320000000000  124.569094000000  9.350000000000  1  # C
 22.320000000000  126.000922666700  9.350000000000  1  # C
 21.080000000000  126.716837000000  9.350000000000  1  # C
 21.080000000000  128.148665666700  9.350000000000  1  # C
 19.840000000000  128.864580000000  9.350000000000  1  # C
 19.840000000000  130.296408666700  9.350000000000  1  # C
 18.600000000000  131.012323000000  9.350000000000  1  # C
 18.600000000000  132.444151666700  9.350000000000  1  # C
 17.360000000000  133.160066000000  9.350000000000  1  # C
 17.360000000000  134.591894666700  9.350000000000  1  # C
 16.120000000000  135.307809000000  9.350000000000  1  # C
 16.120000000000  136.739637666700  9.350000000000  1  # C
 14.880000000000  137.455552000000  9.350000000000  1  # C
 14.880000000000  138.887380666700  9.350000000000  1  # C
 13.640000000000  139.603295000000  9.350000000000  1  # C
 71.920000000000  42.954860000000  9.350000000000  1  # C
 71.920000000000  44.386688666700  9.350000000000  1  # C
 70.680000000000  45.102603000000  9.350000000000  1  # C
 70.680000000000  46.534431666700  9.350000000000  1  # C
 69.440000000000  47.250346000000  9.350000000000  1  # C
 69.440000000000  48.682174666700  9.350000000000  1  # C
 68.200000000000  49.398089000000  9.350000000000  1  # C
 68.200000000000  50.829917666700  9.350000000000  1  # C
 66.960000000000  51.545832000000  9.350000000000  1  # C
 66.960000000000  52.977660666700  9.350000000000  1  # C
 65.720000000000  53.693575000000  9.350000000000  1  # C
 65.720000000000  55.125403666700  9.350000000000  1  # C
 64.480000000000  55.841318000000  9.350000000000  1  # C
 64.480000000000  57.273146666700  9.350000000000  1  # C
 63.240000000000  57.989061000000  9.350000000000  1  # C
 63.240000000000  59.420889666700  9.350000000000  1  # C
 62.000000000000  60.136804000000  9.350000000000  1  # C
 62.000000000000  61.568632666700  9.350000000000  1  # C
 60.760000000000  62.284547000000  9.350000000000  1  # C
 60.760000000000  63.716375666700  9.350000000000  1  # C
 59.520000000000  64.432290000000  9.350000000000  1  # C
 59.520000000000  65.864118666700  9.350000000000  1  # C
 58.280000000000  66.580033000000  9.350000000000  1  # C
 58.280000000000  68.011861666700  9.350000000000  1  # C
 57.040000000000  68.727776000000  9.350000000000  1  # C
 57.040000000000  70.159604666700  9.350000000000  1  # C
 55.800000000000  70.875519000000  9.350000000000  1  # C
 55.800000000000  72.307347666700  9.350000000000  1  # C
 54.560000000000  73.023262000000  9.350000000000  1  # C
 54.560000000000  74.455090666700  9.350000000000  1  # C
 53.320000000000  75.171005000000  9.350000000000  1  # C
 53.320000000000  76.602833666700  9.350000000000  1  # C
 52.080000000000  77.318748000000  9.350000000000  1  # C
 52.080000000000  78.750576666700  9.350000000000  1  # C
 50.840000000000  79.466491000000  9.350000000000  1  # C
 50.840000000000  80.898319666700  9.350000000000  1  # C
 49.600000000000  81.614234000000  9.350000000000  1  # C
 49.600000000000  83.046062666700  9.350000000000  1  # C
 48.360000000000  83.761977000000  9.350000000000  1  # C
 48.360000000000  85.193805666700  9.350000000000  1  # C
 47.120000000000  85.909720000000  9.350000000000  1  # C
 47.120000000000  87.341548666700  9.350000000000  1  # C
 45.880000000000  88.057463000000  9.350000000000  1  # C
 45.880000000000  89.489291666700  9.350000000000  1  # C
 44.640000000000  90.205206000000  9.350000000000  1  # C
 44.640000000000  91.637034666700  9.350000000000  1  # C
 43.400000000000  92.352949000000  9.350000000000  1  # C
 43.400000000000  93.784777666700  9.350000000000  1  # C
 42.160000000000  94.500692000000  9.350000000000  1  # C
 42.160000000000  95.932520666700  9.350000000000  1  # C
 40.920000000000  96.648435000000  9.350000000000  1  # C
 40.920000000000  98.080263666700  9.350000000000  1  # C
 39.680000000000  98.796178000000  9.350000000000  1  # C
 39.680000000000  100.228006666700  9.350000000000  1  # C
 38.440000000000  100.943921000000  9.350000000000  1  # C
 38.440000000000  102.375749666700  9.350000000000  1  # C
 37.200000000000  103.091664000000  9.350000000000  1  # C
 37.200000000000  104.523492666700  9.350000000000  1  # C
 35.960000000000  105.239407000000  9.350000000000  1  # C
 35.960000000000  106.671235666700  9.350000000000  1  # C
 34.720000000000  107.387150000000  9.350000000000  1  # C
 34.720000000000  108.818978666700  9.350000000000  1  # C
 33.480000000000  109.534893000000  9.350000000000  1  # C
 33.480000000000  110.966721666700  9.350000000000  1  # C
 32.240000000000  111.682636000000  9.350000000000  1  # C
 32.240000000000  113.114464666700  9.350000000000  1  # C
 31.000000000000  113.830379000000  9.350000000000  1  # C
 31.000000000000  115.262207666700  9.350000000000  1  # C
 29.760000000000  115.978122000000  9.350000000000  1  # C
 29.760000000000  117.409950666700  9.350000000000  1  # C
 28.520000000000  118.125865000000  9.350000000000  1  # C
 28.520000000000  119.557693666700  9.350000000000  1  # C
 27.280000000000  120.273608000000  9.350000000000  1  # C
 27.280000000000  121.705436666700  9.350000000000  1  # C
 26.040000000000  122.421351000000  9.350000000000  1  # C
 26.040000000000  123.853179666700  9.350000000000  1  # C
 24.800000000000  124.569094000000  9.350000000000  1  # C
 24.800000000000  126.000922666700  9.350000000000  1  # C
 23.560000000000  126.716837000000  9.350000000000  1  # C
 23.560000000000  128.148665666700  9.350000000000  1  # C
 22.320000000000  128.864580000000  9.350000000000  1  # C
 22.320000000000  130.296408666700  9.350000000000  1  # C
 21.080000000000  131.012323000000  9.350000000000  1  # C
 21.080000000000  132.444151666700  9.350000000000  1  # C
 19.840000000000  133.160066000000  9.350000000000  1  # C
 19.840000000000  134.591894666700  9.350000000000  1  # C
 18.600000000000  135.307809000000  9.350000000000  1  # C
 18.600000000000  136.739637666700  9.350000000000  1  # C
 17.360000000000  137.455552000000  9.350000000000  1  # C
 17.360000000000  138.887380666700  9.350000000000  1  # C
 16.120000000000  139.603295000000  9.350000000000  1  # C
 16.120000000000  141.035123666700  9.350000000000  1  # C
 74.400000000000  44.386688666700  9.350000000000  1  # C
 73.160000000000  45.102603000000  9.350000000000  1  # C
 73.160000000000  46.534431666700  9.350000000000  1  # C
 71.920000000000  47.250346000000  9.350000000000  1  # C
 71.920000000000  48.682174666700  9.350000000000  1  # C
 70.680000000000  49.398089000000  9.350000000000  1  # C
 70.680000000000  50.829917666700  9.350000000000  1  # C
 69.440000000000  51.545832000000  9.350000000000  1  # C
 69.440000000000  52.977660666700  9.350000000000  1  # C
 68.200000000000  53.693575000000  9.350000000000  1  # C
 68.200000000000  55.125403666700  9.350000000000  1  # C
 66.960000000000  55.841318000000  9.350000000000  1  # C
 66.960000000000  57.273146666700  9.350000000000  1  # C
 65.720000000000  57.989061000000  9.350000000000  1  # C
 65.720000000000  59.420889666700  9.350000000000  1  # C
 64.480000000000  60.136804000000  9.350000000000  1  # C
 64.480000000000  61.568632666700  9.350000000000  1  # C
 63.240000000000  62.284547000000  9.350000000000  1  # C
 63.240000000000  63.716375666700  9.350000000000  1  # C
 62.000000000000  64.432290000000  9.350000000000  1  # C
 62.000000000000  65.864118666700  9.350000000000  1  # C
 60.760000000000  66.580033000000  9.350000000000  1  # C
 60.760000000000  68.011861666700  9.350000000000  1  # C
 59.520000000000  68.727776000000  9.350000000000  1  # C
 59.520000000000  70.159604666700  9.350000000000  1  # C
 58.280000000000  70.875519000000  9.350000000000  1  # C
 58.280000000000  72.307347666700  9.350000000000  1  # C
 57.040000000000  73.023262000000  9.350000000000  1  # C
 57.040000000000  74.455090666700  9.350000000000  1  # C
 55.800000000000  75.171005000000  9.350000000000  1  # C
 55.800000000000  76.602833666700  9.350000000000  1  # C
 54.560000000000  77.318748000000  9.350000000000  1  # C
 54.560000000000  78.750576666700  9.350000000000  1  # C
 53.320000000000  79.466491000000  9.350000000000  1  # C
 53.320000000000  80.898319666700  9.350000000000  1  # C
 52.080000000000  81.614234000000  9.350000000000  1  # C
 52.080000000000  83.046062666700  9.350000000000  1  # C
 50.840000000000  83.761977000000  9.350000000000  1  # C
 50.840000000000  85.193805666700  9.350000000000  1  # C
 49.600000000000  85.909720000000  9.350000000000  1  # C
 49.600000000000  87.341548666700  9.350000000000  1  # C
 48.360000000000  88.057463000000  9.350000000000  1  # C
 48.360000000000  89.489291666700  9.350000000000  1  # C
 47.120000000000  90.205206000000  9.350000000000  1  # C
 47.120000000000  91.637034666700  9.350000000000  1  # C
 45.880000000000  92.352949000000  9.350000000000  1  # C
 45.880000000000  93.784777666700  9.350000000000  1  # C
 44.640000000000  94.500692000000  9.350000000000  1  # C
 44.640000000000  95.932520666700  9.350000000000  1  # C
 43.400000000000  96.648435000000  9.350000000000  1  # C
 43.400000000000  98.080263666700  9.350000000000  1  # C
 42.160000000000  98.796178000000  9.350000000000  1  # C
 42.160000000000  100.228006666700  9.350000000000  1  # C
 40.920000000000  100.943921000000  9.350000000000  1  # C
 40.920000000000  102.375749666700  9.350000000000  1  # C
 39.680000000000  103.091664000000  9.350000000000  1  # C
 39.680000000000  104.523492666700  9.350000000000  1  # C
 38.440000000000  105.239407000000  9.350000000000  1  # C
 38.440000000000  106.671235666700  9.350000000000  1  # C
 37.200000000000  107.387150000000  9.350000000000  1  # C
 37.200000000000  108.818978666700  9.350000000000  1  # C
 35.960000000000  109.534893000000  9.350000000000  1  # C
 35.960000000000  110.966721666700  9.350000000000  1  # C
 34.720000000000  111.682636000000  9.350000000000  1  # C
 34.720000000000  113.114464666700  9.350000000000  1  # C
 33.480000000000  113.830379000000  9.350000000000  1  # C
 33.480000000000  115.262207666700  9.350000000000  1  # C
 32.240000000000  115.978122000000  9.350000000000  1  # C
 32.240000000000  117.409950666700  9.350000000000  1  # C
 31.000000000000  118.125865000000  9.350000000000  1  # C
 31.000000000000  119.557693666700  9.350000000000  1  # C
 29.760000000000  120.273608000000  9.350000000000  1  # C
 29.760000000000  121.705436666700  9.350000000000  1  # C
 28.520000000000  122.421351000000  9.350000000000  1  # C
 28.520000000000  123.853179666700  9.350000000000  1  # C
 27.280000000000  124.569094000000  9.350000000000  1  # C
 27.280000000000  126.000922666700  9.350000000000  1  # C
 26.040000000000  126.716837000000  9.350000000000  1  # C
 26.040000000000  128.148665666700  9.350000000000  1  # C
 24.800000000000  128.864580000000  9.350000000000  1  # C
 24.800000000000  130.296408666700  9.350000000000  1  # C
 23.560000000000  131.012323000000  9.350000000000  1  # C
 23.560000000000  132.444151666700  9.350000000000  1  # C
 22.320000000000  133.160066000000  9.350000000000  1  # C
 22.320000000000  134.591894666700  9.350000000000  1  # C
 21.080000000000  135.307809000000  9.350000000000  1  # C
 21.080000000000  136.739637666700  9.350000000000  1  # C
 19.840000000000  137.455552000000  9.350000000000  1  # C
 19.840000000000  138.887380666700  9.350000000000  1  # C
 18.600000000000  139.603295000000  9.350000000000  1  # C
 18.600000000000  141.035123666700  9.350000000000  1  # C
 17.360000000000  141.751038000000  9.350000000000  1  # C
 75.640000000000  45.102603000000  9.350000000000  1  # C
 75.640000000000  46.534431666700  9.350000000000  1  # C
 74.400000000000  47.250346000000  9.350000000000  1  # C
 74.400000000000  48.682174666700  9.350000000000  1  # C
 73.160000000000  49.398089000000  9.350000000000  1  # C
 73.160000000000  50.829917666700  9.350000000000  1  # C
 71.920000000000  51.545832000000  9.350000000000  1  # C
 71.920000000000  52.977660666700  9.350000000000  1  # C
 70.680000000000  53.693575000000  9.350000000000  1  # C
 70.680000000000  55.125403666700  9.350000000000  1  # C
 69.440000000000  55.841318000000  9.350000000000  1  # C
 69.440000000000  57.273146666700  9.350000000000  1  # C
 68.200000000000  57.989061000000  9.350000000000  1  # C
 68.200000000000  59.420889666700  9.350000000000  1  # C
 66.960000000000  60.136804000000  9.350000000000  1  # C
 66.960000000000  61.568632666700  9.350000000000  1  # C
 65.720000000000  62.284547000000  9.350000000000  1  # C
 65.720000000000  63.716375666700  9.350000000000  1  # C
 64.480000000000  64.432290000000  9.350000000000  1  # C
 64.480000000000  65.864118666700  9.350000000000  1  # C
 63.240000000000  66.580033000000  9.350000000000  1  # C
 63.240000000000  68.011861666700  9.350000000000  1  # C
 62.000000000000  68.727776000000  9.350000000000  1  # C
 62.000000000000  70.159604666700  9.350000000000  1  # C
 60.760000000000  70.875519000000  9.350000000000  1  # C
 60.760000000000  72.307347666700  9.350000000000  1  # C
 59.520000000000  73.023262000000  9.350000000000  1  # C
 59.520000000000  74.455090666700  9.350000000000  1  # C
 58.280000000000  75.171005000000  9.350000000000  1  # C
 58.280000000000  76.602833666700  9.350000000000  1  # C
 57.040000000000  77.318748000000  9.350000000000  1  # C
 57.040000000000  78.750576666700  9.350000000000  1  # C
 55.800000000000  79.466491000000  9.350000000000  1  # C
 55.800000000000  80.898319666700  9.350000000000  1  # C
 54.560000000000  81.614234000000  9.350000000000  1  # C
 54.560000000000  83.046062666700  9.350000000000  1  # C
 53.320000000000  83.761977000000  9.350000000000  1  # C
 53.320000000000  85.193805666700  9.350000000000  1  # C
 52.080000000000  85.909720000000  9.350000000000  1  # C
 52.080000000000  87.341548666700  9.350000000000  1  # C
 50.840000000000  88.057463000000  9.350000000000  1  # C
 50.840000000000  89.489291666700  9.350000000000  1  # C
 49.600000000000  90.205206000000  9.350000000000  1  # C
 49.600000000000  91.637034666700  9.350000000000  1  # C
 48.360000000000  92.352949000000  9.350000000000  1  # C
 48.360000000000  93.784777666700  9.350000000000  1  # C
 47.120000000000  94.500692000000  9.350000000000  1  # C
 47.120000000000  95.932520666700  9.350000000000  1  # C
 45.880000000000  96.648435000000  9.350000000000  1  # C
 45.880000000000  98.080263666700  9.350000000000  1  # C
 44.640000000000  98.796178000000  9.350000000000  1  # C
 44.640000000000  100.228006666700  9.350000000000  1  # C
 43.400000000000  100.943921000000  9.350000000000  1  # C
 43.400000000000  102.375749666700  9.350000000000  1  # C
 42.160000000000  103.091664000000  9.350000000000  1  # C
 42.160000000000  104.523492666700  9.350000000000  1  # C
 40.920000000000  105.239407000000  9.350000000000  1  # C
 40.920000000000  106.671235666700  9.350000000000  1  # C
 39.680000000000  107.387150000000  9.350000000000  1  # C
 39.680000000000  108.818978666700  9.350000000000  1  # C
 38.440000000000  109.534893000000  9.350000000000  1  # C
 38.440000000000  110.966721666700  9.350000000000  1  # C
 37.200000000000  111.682636000000  9.350000000000  1  # C
 37.200000000000  113.114464666700  9.350000000000  1  # C
 35.960000000000  113.830379000000  9.350000000000  1  # C
 35.960000000000  115.262207666700  9.350000000000  1  # C
 34.720000000000  115.978122000000  9.350000000000  1  # C
 34.720000000000  117.409950666700  9.350000000000  1  # C
 33.480000000000  118.125865000000  9.350000000000  1  # C
 33.480000000000  119.557693666700  9.350000000000  1  # C
 32.240000000000  120.273608000000  9.350000000000  1  # C
 32.240000000000  121.705436666700  9.350000000000  1  # C
 31.000000000000  122.421351000000  9.350000000000  1  # C
 31.000000000000  123.853179666700  9.350000000000  1  # C
 29.760000000000  124.569094000000  9.350000000000  1  # C
 29.760000000000  126.000922666700  9.350000000000  1  # C
 28.520000000000  126.716837000000  9.350000000000  1  # C
 28.520000000000  128.148665666700  9.350000000000  1  # C
 27.280000000000  128.864580000000  9.350000000000  1  # C
 27.280000000000  130.296408666700  9.350000000000  1  # C
 26.040000000000  131.012323000000  9.350000000000  1  # C
 26.040000000000  132.444151666700  9.350000000000  1  # C
 24.800000000000  133.160066000000  9.350000000000  1  # C
 24.800000000000  134.591894666700  9.350000000000  1  # C
 23.560000000000  135.307809000000  9.350000000000  1  # C
 23.560000000000  136.739637666700  9.350000000000  1  # C
 22.320000000000  137.455552000000  9.350000000000  1  # C
 22.320000000000  138.887380666700  9.350000000000  1  # C
 21.080000000000  139.603295000000  9.350000000000  1  # C
 21.080000000000  141.035123666700  9.350000000000  1  # C
 19.840000000000  141.751038000000  9.350000000000  1  # C
 19.840000000000  143.182866666700  9.350000000000  1  # C
 78.120000000000  46.534431666700  9.350000000000  1  # C
 76.880000000000  47.250346000000  9.350000000000  1  # C
 76.880000000000  48.682174666700  9.350000000000  1  # C
 75.640000000000  49.398089000000  9.350000000000  1  # C
 75.640000000000  50.829917666700  9.350000000000  1  # C
 74.400000000000  51.545832000000  9.350000000000  1  # C
 74.400000000000  52.977660666700  9.350000000000  1  # C
 73.160000000000  53.693575000000  9.350000000000  1  # C
 73.160000000000  55.125403666700  9.350000000000  1  # C
 71.920000000000  55.841318000000  9.350000000000  1  # C
 71.920000000000  57.273146666700  9.350000000000  1  # C
 70.680000000000  57.989061000000  9.350000000000  1  # C
 70.680000000000  59.420889666700  9.350000000000  1  # C
 69.440000000000  60.136804000000  9.350000000000  1  # C
 69.440000000000  61.568632666700  9.350000000000  1  # C
 68.200000000000  62.284547000000  9.350000000000  1  # C
 68.200000000000  63.716375666700  9.350000000000  1  # C
 66.960000000000  64.432290000000  9.350000000000  1  # C
 66.960000000000  65.864118666700  9.350000000000  1  # C
 65.720000000000  66.580033000000  9.350000000000  1  # C
 65.720000000000  68.011861666700  9.350000000000  1  # C
 64.480000000000  68.727776000000  9.350000000000  1  # C
 64.480000000000  70.159604666700  9.350000000000  1  # C
 63.240000000000  70.875519000000  9.350000000000  1  # C
 63.240000000000  72.307347666700  9.350000000000  1  # C
 62.000000000000  73.023262000000  9.350000000000  1  # C
 62.000000000000  74.455090666700  9.350000000000  1  # C
 60.760000000000  75.171005000000  9.350000000000  1  # C
 60.760000000000  76.602833666700  9.350000000000  1  # C
 59.520000000000  77.318748000000  9.350000000000  1  # C
 59.520000000000  78.750576666700  9.350000000000  1  # C
 58.280000000000  79.466491000000  9.350000000000  1  # C
 58.280000000000  80.898319666700  9.350000000000  1  # C
 57.040000000000  81.614234000000  9.350000000000  1  # C
 57.040000000000  83.046062666700  9.350000000000  1  # C
 55.800000000000  83.761977000000  9.350000000000  1  # C
 55.800000000000  85.193805666700  9.350000000000  1  # C
 54.560000000000  85.909720000000  9.350000000000  1  # C
 54.560000000000  87.341548666700  9.350000000000  1  # C
 53.320000000000  88.057463000000  9.350000000000  1  # C
 53.320000000000  89.489291666700  9.350000000000  1  # C
 52.080000000000  90.205206000000  9.350000000000  1  # C
 52.080000000000  91.637034666700  9.350000000000  1  # C
 50.840000000000  92.352949000000  9.350000000000  1  # C
 50.840000000000  93.784777666700  9.350000000000  1  # C
 49.600000000000  94.500692000000  9.350000000000  1  # C
 49.600000000000  95.932520666700  9.350000000000  1  # C
 48.360000000000  96.648435000000  9.350000000000  1  # C
 48.360000000000  98.080263666700  9.350000000000  1  # C
 47.120000000000  98.796178000000  9.350000000000  1  # C
 47.120000000000  100.228006666700  9.350000000000  1  # C
 45.880000000000  100.943921000000  9.350000000000  1  # C
 45.880000000000  102.375749666700  9.350000000000  1  # C
 44.640000000000  103.091664000000  9.350000000000  1  # C
 44.640000000000  104.523492666700  9.350000000000  1  # C
 43.400000000000  105.239407000000  9.350000000000  1  # C
 43.400000000000  106.671235666700  9.350000000000  1  # C
 42.160000000000  107.387150000000  9.350000000000  1  # C
 42.160000000000  108.818978666700  9.350000000000  1  # C
 40.920000000000  109.534893000000  9.350000000000  1  # C
 40.920000000000  110.966721666700  9.350000000000  1  # C
 39.680000000000  111.682636000000  9.350000000000  1  # C
 39.680000000000  113.114464666700  9.350000000000  1  # C
 38.440000000000  113.830379000000  9.350000000000  1  # C
 38.440000000000  115.262207666700  9.350000000000  1  # C
 37.200000000000  115.978122000000  9.350000000000  1  # C
 37.200000000000  117.409950666700  9.350000000000  1  # C
 35.960000000000  118.125865000000  9.350000000000  1  # C
 35.960000000000  119.557693666700  9.350000000000  1  # C
 34.720000000000  120.273608000000  9.350000000000  1  # C
 34.720000000000  121.705436666700  9.350000000000  1  # C
 33.480000000000  122.421351000000  9.350000000000  1  # C
 33.480000000000  123.853179666700  9.350000000000  1  # C
 32.240000000000  124.569094000000  9.350000000000  1  # C
 32.240000000000  126.000922666700  9.350000000000  1  # C
 31.000000000000  126.716837000000  9.350000000000  1  # C
 31.000000000000  128.148665666700  9.350000000000  1  # C
 29.760000000000  128.864580000000  9.350000000000  1  # C
 29.760000000000  130.296408666700  9.350000000000  1  # C
 28.520000000000  131.012323000000  9.350000000000  1  # C
 28.520000000000  132.444151666700  9.350000000000  1  # C
 27.280000000000  133.160066000000  9.350000000000  1  # C
 27.280000000000  134.591894666700  9.350000000000  1  # C
 26.040000000000  135.307809000000  9.350000000000  1  # C
 26.040000000000  136.739637666700  9.350000000000  1  # C
 24.800000000000  137.455552000000  9.350000000000  1  # C
 24.800000000000  138.887380666700  9.350000000000  1  # C
 23.560000000000  139.603295000000  9.350000000000  1  # C
 23.560000000000  141.035123666700  9.350000000000  1  # C
 22.320000000000  141.751038000000  9.350000000000  1  # C
 22.320000000000  143.182866666700  9.350000000000  1  # C
 21.080000000000  143.898781000000  9.350000000000  1  # C
 79.360000000000  47.250346000000  9.350000000000  1  # C
 79.360000000000  48.682174666700  9.350000000000  1  # C
 78.120000000000  49.398089000000  9.350000000000  1  # C
 78.120000000000  50.829917666700  9.350000000000  1  # C
 76.880000000000  51.545832000000  9.350000000000  1  # C
 76.880000000000  52.977660666700  9.350000000000  1  # C
 75.640000000000  53.693575000000  9.350000000000  1  # C
 75.640000000000  55.125403666700  9.350000000000  1  # C
 74.400000000000  55.841318000000  9.350000000000  1  # C
 74.400000000000  57.273146666700  9.350000000000  1  # C
 73.160000000000  57.989061000000  9.350000000000  1  # C
 73.160000000000  59.420889666700  9.350000000000  1  # C
 71.920000000000  60.136804000000  9.350000000000  1  # C
 71.920000000000  61.568632666700  9.350000000000  1  # C
 70.680000000000  62.284547000000  9.350000000000  1  # C
 70.680000000000  63.716375666700  9.350000000000  1  # C
 69.440000000000  64.432290000000  9.350000000000  1  # C
 69.440000000000  65.864118666700  9.350000000000  1  # C
 68.200000000000  66.580033000000  9.350000000000  1  # C
 68.200000000000  68.011861666700  9.350000000000  1  # C
 66.960000000000  68.727776000000  9.350000000000  1  # C
 66.960000000000  70.159604666700  9.350000000000  1  # C
 65.720000000000  70.875519000000  9.350000000000  1  # C
 65.720000000000  72.307347666700  9.350000000000  1  # C
 64.480000000000  73.023262000000  9.350000000000  1  # C
 64.480000000000  74.455090666700  9.350000000000  1  # C
 63.240000000000  75.171005000000  9.350000000000  1  # C
 63.240000000000  76.602833666700  9.350000000000  1  # C
 62.000000000000  77.318748000000  9.350000000000  1  # C
 62.000000000000  78.750576666700  9.350000000000  1  # C
 60.760000000000  79.466491000000  9.350000000000  1  # C
 60.760000000000  80.898319666700  9.350000000000  1  # C
 59.520000000000  81.614234000000  9.350000000000  1  # C
 59.520000000000  83.046062666700  9.350000000000  1  # C
 58.280000000000  83.761977000000  9.350000000000  1  # C
 58.280000000000  85.193805666700  9.350000000000  1  # C
 57.040000000000  85.909720000000  9.350000000000  1  # C
 57.040000000000  87.341548666700  9.350000000000  1  # C
 55.800000000000  88.057463000000  9.350000000000  1  # C
 55.800000000000  89.489291666700  9.350000000000  1  # C
 54.560000000000  90.205206000000  9.350000000000  1  # C
 54.560000000000  91.637034666700  9.350000000000  1  # C
 53.320000000000  92.352949000000  9.350000000000  1  # C
 53.320000000000  93.784777666700  9.350000000000  1  # C
 52.080000000000  94.500692000000  9.350000000000  1  # C
 52.080000000000  95.932520666700  9.350000000000  1  # C
 50.840000000000  96.648435000000  9.350000000000  1  # C
 50.840000000000  98.080263666700  9.350000000000  1  # C
 49.600000000000  98.796178000000  9.350000000000  1  # C
 49.600000000000  100.228006666700  9.350000000000  1  # C
 48.360000000000  100.943921000000  9.350000000000  1  # C
 48.360000000000  102.375749666700  9.350000000000  1  # C
 47.120000000000  103.091664000000  9.350000000000  1  # C
 47.120000000000  104.523492666700  9.350000000000  1  # C
 45.880000000000  105.239407000000  9.350000000000  1  # C
 45.880000000000  106.671235666700  9.350000000000  1  # C
 44.640000000000  107.387150000000  9.350000000000  1  # C
 44.640000000000  108.818978666700  9.350000000000  1  # C
 43.400000000000  109.534893000000  9.350000000000  1  # C
 43.400000000000  110.966721666700  9.350000000000  1  # C
 42.160000000000  111.682636000000  9.350000000000  1  # C
 42.160000000000  113.114464666700  9.350000000000  1  # C
 40.920000000000  113.830379000000  9.350000000000  1  # C
 40.920000000000  115.262207666700  9.350000000000  1  # C
 39.680000000000  115.978122000000  9.350000000000  1  # C
 39.680000000000  117.409950666700  9.350000000000  1  # C
 38.440000000000  118.125865000000  9.350000000000  1  # C
 38.440000000000  119.557693666700  9.350000000000  1  # C
 37.200000000000  120.273608000000  9.350000000000  1  # C
 37.200000000000  121.705436666700  9.350000000000  1  # C
 35.960000000000  122.421351000000  9.350000000000  1  # C
 35.960000000000  123.853179666700  9.350000000000  1  # C
 34.720000000000  124.569094000000  9.350000000000  1  # C
 34.720000000000  126.000922666700  9.350000000000  1  # C
 33.480000000000  126.716837000000  9.350000000000  1  # C
 33.480000000000  128.148665666700  9.350000000000  1  # C
 32.240000000000  128.864580000000  9.350000000000  1  # C
 32.240000000000  130.296408666700  9.350000000000  1  # C
 31.000000000000  131.012323000000  9.350000000000  1  # C
 31.000000000000  132.444151666700  9.350000000000  1  # C
 29.760000000000  133.160066000000  9.350000000000  1  # C
 29.760000000000  134.591894666700  9.350000000000  1  # C
 28.520000000000  135.307809000000  9.350000000000  1  # C
 28.520000000000  136.739637666700  9.350000000000  1  # C
 27.280000000000  137.455552000000  9.350000000000  1  # C
 27.280000000000  138.887380666700  9.350000000000  1  # C
 26.040000000000  139.603295000000  9.350000000000  1  # C
 26.040000000000  141.035123666700  9.350000000000  1  # C
 24.800000000000  141.751038000000  9.350000000000  1  # C
 24.800000000000  143.182866666700  9.350000000000  1  # C
 23.560000000000  143.898781000000  9.350000000000  1  # C
 23.560000000000  145.330609666700  9.350000000000  1  # C
 81.840000000000  48.682174666700  9.350000000000  1  # C
 80.600000000000  49.398089000000  9.350000000000  1  # C
 80.600000000000  50.829917666700  9.350000000000  1  # C
 79.360000000000  51.545832000000  9.350000000000  1  # C
 79.360000000000  52.977660666700  9.350000000000  1  # C
 78.120000000000  53.693575000000  9.350000000000  1  # C
 78.120000000000  55.125403666700  9.350000000000  1  # C
 76.880000000000  55.841318000000  9.350000000000  1  # C
 76.880000000000  57.273146666700  9.350000000000  1  # C
 75.640000000000  57.989061000000  9.350000000000  1  # C
 75.640000000000  59.420889666700  9.350000000000  1  # C
 74.400000000000  60.136804000000  9.350000000000  1  # C
 74.400000000000  61.568632666700  9.350000000000  1  # C
 73.160000000000  62.284547000000  9.350000000000  1  # C
 73.160000000000  63.716375666700  9.350000000000  1  # C
 71.920000000000  64.432290000000  9.350000000000  1  # C
 71.920000000000  65.864118666700  9.350000000000  1  # C
 70.680000000000  66.580033000000  9.350000000000  1  # C
 70.680000000000  68.011861666700  9.350000000000  1  # C
 69.440000000000  68.727776000000  9.350000000000  1  # C
 69.440000000000  70.159604666700  9.350000000000  1  # C
 68.200000000000  70.875519000000  9.350000000000  1  # C
 68.200000000000  72.307347666700  9.350000000000  1  # C
 66.960000000000  73.023262000000  9.350000000000  1  # C
 66.960000000000  74.455090666700  9.350000000000  1  # C
 65.720000000000  75.171005000000  9.350000000000  1  # C
 65.720000000000  76.602833666700  9.350000000000  1  # C
 64.480000000000  77.318748000000  9.350000000000  1  # C
 64.480000000000  78.750576666700  9.350000000000  1  # C
 63.240000000000  79.466491000000  9.350000000000  1  # C
 63.240000000000  80.898319666700  9.350000000000  1  # C
 62.000000000000  81.614234000000  9.350000000000  1  # C
 62.000000000000  83.046062666700  9.350000000000  1  # C
 60.760000000000  83.761977000000  9.350000000000  1  # C
 60.760000000000  85.193805666700  9.350000000000  1  # C
 59.520000000000  85.909720000000  9.350000000000  1  # C
 59.520000000000  87.341548666700  9.350000000000  1  # C
 58.280000000000  88.057463000000  9.350000000000  1  # C
 58.280000000000  89.489291666700  9.350000000000  1  # C
 57.040000000000  90.205206000000  9.350000000000  1  # C
 57.040000000000  91.637034666700  9.350000000000  1  # C
 55.800000000000  92.352949000000  9.350000000000  1  # C
 55.800000000000  93.784777666700  9.350000000000  1  # C
 54.560000000000  94.500692000000  9.350000000000  1  # C
 54.560000000000  95.932520666700  9.350000000000  1  # C
 53.320000000000  96.648435000000  9.350000000000  1  # C
 53.320000000000  98.080263666700  9.350000000000  1  # C
 52.080000000000  98.796178000000  9.350000000000  1  # C
 52.080000000000  100.228006666700  9.350000000000  1  # C
 50.840000000000  100.943921000000  9.350000000000  1  # C
 50.840000000000  102.375749666700  9.350000000000  1  # C
 49.600000000000  103.091664000000  9.350000000000  1  # C
 49.600000000000  104.523492666700  9.350000000000  1  # C
 48.360000000000  105.239407000000  9.350000000000  1  # C
 48.360000000000  106.671235666700  9.350000000000  1  # C
 47.120000000000  107.387150000000  9.350000000000  1  # C
 47.120000000000  108.818978666700  9.350000000000  1  # C
 45.880000000000  109.534893000000  9.350000000000  1  # C
 45.880000000000  110.966721666700  9.350000000000  1  # C
 44.640000000000  111.682636000000  9.350000000000  1  # C
 44.640000000000  113.114464666700  9.350000000000  1  # C
 43.400000000000  113.830379000000  9.350000000000  1  # C
 43.400000000000  115.262207666700  9.350000000000  1  # C
 42.160000000000  115.978122000000  9.350000000000  1  # C
 42.160000000000  117.409950666700  9.350000000000  1  # C
 40.920000000000  118.125865000000  9.350000000000  1  # C
 40.920000000000  119.557693666700  9.350000000000  1  # C
 39.680000000000  120.273608000000  9.350000000000  1  # C
 39.680000000000  121.705436666700  9.350000000000  1  # C
 38.440000000000  122.421351000000  9.350000000000  1  # C
 38.440000000000  123.853179666700  9.350000000000  1  # C
 37.200000000000  124.569094000000  9.350000000000  1  # C
 37.200000000000  126.000922666700  9.350000000000  1  # C
 35.960000000000  126.716837000000  9.350000000000  1  # C
 35.960000000000  128.148665666700  9.350000000000  1  # C
 34.720000000000  128.864580000000  9.350000000000  1  # C
 34.720000000000  130.296408666700  9.350000000000  1  # C
 33.480000000000  131.012323000000  9.350000000000  1  # C
 33.480000000000  132.444151666700  9.350000000000  1  # C
 32.240000000000  133.160066000000  9.350000000000  1  # C
 32.240000000000  134.591894666700  9.350000000000  1  # C
 31.000000000000  135.307809000000  9.350000000000  1  # C
 31.000000000000  136.739637666700  9.350000000000  1  # C
 29.760000000000  137.455552000000  9.350000000000  1  # C
 29.760000000000  138.887380666700  9.350000000000  1  # C
 28.520000000000  139.603295000000  9.350000000000  1  # C
 28.520000000000  141.035123666700  9.350000000000  1  # C
 27.280000000000  141.751038000000  9.350000000000  1  # C
 27.280000000000  143.182866666700  9.350000000000  1  # C
 26.040000000000  143.898781000000  9.350000000000  1  # C
 26.040000000000  145.330609666700  9.350000000000  1  # C
 24.800000000000  146.046524000000  9.350000000000  1  # C
 83.080000000000  49.398089000000  9.350000000000  1  # C
 83.080000000000  50.829917666700  9.350000000000  1  # C
 81.840000000000  51.545832000000  9.350000000000  1  # C
 81.840000000000  52.977660666700  9.350000000000  1  # C
 80.600000000000  53.693575000000  9.350000000000  1  # C
 80.600000000000  55.125403666700  9.350000000000  1  # C
 79.360000000000  55.841318000000  9.350000000000  1  # C
 79.360000000000  57.273146666700  9.350000000000  1  # C
 78.120000000000  57.989061000000  9.350000000000  1  # C
 78.120000000000  59.420889666700  9.350000000000  1  # C
 76.880000000000  60.136804000000  9.350000000000  1  # C
 76.880000000000  61.568632666700  9.350000000000  1  # C
 75.640000000000  62.284547000000  9.350000000000  1  # C
 75.640000000000  63.716375666700  9.350000000000  1  # C
 74.400000000000  64.432290000000  9.350000000000  1  # C
 74.400000000000  65.864118666700  9.350000000000  1  # C
 73.160000000000  66.580033000000  9.350000000000  1  # C
 73.160000000000  68.011861666700  9.350000000000  1  # C
 71.920000000000  68.727776000000  9.350000000000  1  # C
 71.920000000000  70.159604666700  9.350000000000  1  # C
 70.680000000000  70.875519000000  9.350000000000  1  # C
 70.680000000000  72.307347666700  9.350000000000  1  # C
 69.440000000000  73.023262000000  9.350000000000  1  # C
 69.440000000000  74.455090666700  9.350000000000  1  # C
 68.200000000000  75.171005000000  9.350000000000  1  # C
 68.200000000000  76.602833666700  9.350000000000  1  # C
 66.960000000000  77.318748000000  9.350000000000  1  # C
 66.960000000000  78.750576666700  9.350000000000  1  # C
 65.720000000000  79.466491000000  9.350000000000  1  # C
 65.720000000000  80.898319666700  9.350000000000  1  # C
 64.480000000000  81.614234000000  9.350000000000  1  # C
 64.480000000000  83.046062666700  9.350000000000  1  # C
 63.240000000000  83.761977000000  9.350000000000  1  # C
 63.240000000000  85.193805666700  9.350000000000  1  # C
 62.000000000000  85.909720000000  9.350000000000  1  # C
 62.000000000000  87.341548666700  9.350000000000  1  # C
 60.760000000000  88.057463000000  9.350000000000  1  # C
 60.760000000000  89.489291666700  9.350000000000  1  # C
 59.520000000000  90.205206000000  9.350000000000  1  # C
 59.520000000000  91.637034666700  9.350000000000  1  # C
 58.280000000000  92.352949000000  9.350000000000  1  # C
 58.280000000000  93.784777666700  9.350000000000  1  # C
 57.040000000000  94.500692000000  9.350000000000  1  # C
 57.040000000000  95.932520666700  9.350000000000  1  # C
 55.800000000000  96.648435000000  9.350000000000  1  # C
 55.800000000000  98.080263666700  9.350000000000  1  # C
 54.560000000000  98.796178000000  9.350000000000  1  # C
 54.560000000000  100.228006666700  9.350000000000  1  # C
 53.320000000000  100.943921000000  9.350000000000  1  # C
 53.320000000000  102.375749666700  9.350000000000  1  # C
 52.080000000000  103.091664000000  9.350000000000  1  # C
 52.080000000000  104.523492666700  9.350000000000  1  # C
 50.840000000000  105.239407000000  9.350000000000  1  # C
 50.840000000000  106.671235666700  9.350000000000  1  # C
 49.600000000000  107.387150000000  9.350000000000  1  # C
 49.600000000000  108.818978666700  9.350000000000  1  # C
 48.360000000000  109.534893000000  9.350000000000  1  # C
 48.360000000000  110.966721666700  9.350000000000  1  # C
 47.120000000000  111.682636000000  9.350000000000  1  # C
 47.120000000000  113.114464666700  9.350000000000  1  # C
 45.880000000000  113.830379000000  9.350000000000  1  # C
 45.880000000000  115.262207666700  9.350000000000  1  # C
 44.640000000000  115.978122000000  9.350000000000  1  # C
 44.640000000000  117.409950666700  9.350000000000  1  # C
 43.400000000000  118.125865000000  9.350000000000  1  # C
 43.400000000000  119.557693666700  9.350000000000  1  # C
 42.160000000000  120.273608000000  9.350000000000  1  # C
 42.160000000000  121.705436666700  9.350000000000  1  # C
 40.920000000000  122.421351000000  9.350000000000  1  # C
 40.920000000000  123.853179666700  9.350000000000  1  # C
 39.680000000000  124.569094000000  9.350000000000  1  # C
 39.680000000000  126.000922666700  9.350000000000  1  # C
 38.440000000000  126.716837000000  9.350000000000  1  # C
 38.440000000000  128.148665666700  9.350000000000  1  # C
 37.200000000000  128.864580000000  9.350000000000  1  # C
 37.200000000000  130.296408666700  9.350000000000  1  # C
 35.960000000000  131.012323000000  9.350000000000  1  # C
 35.960000000000  132.444151666700  9.350000000000  1  # C
 34.720000000000  133.160066000000  9.350000000000  1  # C
 34.720000000000  134.591894666700  9.350000000000  1  # C
 33.480000000000  135.307809000000  9.350000000000  1  # C
 33.480000000000  136.739637666700  9.350000000000  1  # C
 32.240000000000  137.455552000000  9.350000000000  1  # C
 32.240000000000  138.887380666700  9.350000000000  1  # C
 31.000000000000  139.603295000000  9.350000000000  1  # C
 31.000000000000  141.035123666700  9.350000000000  1  # C
 29.760000000000  141.751038000000  9.350000000000  1  # C
 29.760000000000  143.182866666700  9.350000000000  1  # C
 28.520000000000  143.898781000000  9.350000000000  1  # C
 28.520000000000  145.330609666700  9.350000000000  1  # C
 27.280000000000  146.046524000000  9.350000000000  1  # C
 27.280000000000  147.478352666700  9.350000000000  1  # C
 85.560000000000  50.829917666700  9.350000000000  1  # C
 84.320000000000  51.545832000000  9.350000000000  1  # C
 84.320000000000  52.977660666700  9.350000000000  1  # C
 83.080000000000  53.693575000000  9.350000000000  1  # C
 83.080000000000  55.125403666700  9.350000000000  1  # C
 81.840000000000  55.841318000000  9.350000000000  1  # C
 81.840000000000  57.273146666700  9.350000000000  1  # C
 80.600000000000  57.989061000000  9.350000000000  1  # C
 80.600000000000  59.420889666700  9.350000000000  1  # C
 79.360000000000  60.136804000000  9.350000000000  1  # C
 79.360000000000  61.568632666700  9.350000000000  1  # C
 78.120000000000  62.284547000000  9.350000000000  1  # C
 78.120000000000  63.716375666700  9.350000000000  1  # C
 76.880000000000  64.432290000000  9.350000000000  1  # C
 76.880000000000  65.864118666700  9.350000000000  1  # C
 75.640000000000  66.580033000000  9.350000000000  1  # C
 75.640000000000  68.011861666700  9.350000000000  1  # C
 74.400000000000  68.727776000000  9.350000000000  1  # C
 74.400000000000  70.159604666700  9.350000000000  1  # C
 73.160000000000  70.875519000000  9.350000000000  1  # C
 73.160000000000  72.307347666700  9.350000000000  1  # C
 71.920000000000  73.023262000000  9.350000000000  1  # C
 71.920000000000  74.455090666700  9.350000000000  1  # C
 70.680000000000  75.171005000000  9.350000000000  1  # C
 70.680000000000  76.602833666700  9.350000000000  1  # C
 69.440000000000  77.318748000000  9.350000000000  1  # C
 69.440000000000  78.750576666700  9.350000000000  1  # C
 68.200000000000  79.466491000000  9.350000000000  1  # C
 68.200000000000  80.898319666700  9.350000000000  1  # C
 66.960000000000  81.614234000000  9.350000000000  1  # C
 66.960000000000  83.046062666700  9.350000000000  1  # C
 65.720000000000  83.761977000000  9.350000000000  1  # C
 65.720000000000  85.193805666700  9.350000000000  1  # C
 64.480000000000  85.909720000000  9.350000000000  1  # C
 64.480000000000  87.341548666700  9.350000000000  1  # C
 63.240000000000  88.057463000000  9.350000000000  1  # C
 63.240000000000  89.489291666700  9.350000000000  1  # C
 62.000000000000  90.205206000000  9.350000000000  1  # C
 62.000000000000  91.637034666700  9.350000000000  1  # C
 60.760000000000  92.352949000000  9.350000000000  1  # C
 60.760000000000  93.784777666700  9.350000000000  1  # C
 59.520000000000  94.500692000000  9.350000000000  1  # C
 59.520000000000  95.932520666700  9.350000000000  1  # C
 58.280000000000  96.648435000000  9.350000000000  1  # C
 58.280000000000  98.080263666700  9.350000000000  1  # C
 57.040000000000  98.796178000000  9.350000000000  1  # C
 57.040000000000  100.228006666700  9.350000000000  1  # C
 55.800000000000  100.943921000000  9.350000000000  1  # C
 55.800000000000  102.375749666700  9.350000000000  1  # C
 54.560000000000  103.091664000000  9.350000000000  1  # C
 54.560000000000  104.523492666700  9.350000000000  1  # C
 53.320000000000  105.239407000000  9.350000000000  1  # C
 53.320000000000  106.671235666700  9.350000000000  1  # C
 52.080000000000  107.387150000000  9.350000000000  1  # C
 52.080000000000  108.818978666700  9.350000000000  1  # C
 50.840000000000  109.534893000000  9.350000000000  1  # C
 50.840000000000  110.966721666700  9.350000000000  1  # C
 49.600000000000  111.682636000000  9.350000000000  1  # C
 49.600000000000  113.114464666700  9.350000000000  1  # C
 48.360000000000  113.830379000000  9.350000000000  1  # C
 48.360000000000  115.262207666700  9.350000000000  1  # C
 47.120000000000  115.978122000000  9.350000000000  1  # C
 47.120000000000  117.409950666700  9.350000000000  1  # C
 45.880000000000  118.125865000000  9.350000000000  1  # C
 45.880000000000  119.557693666700  9.350000000000  1  # C
 44.640000000000  120.273608000000  9.350000000000  1  # C
 44.640000000000  121.705436666700  9.350000000000  1  # C
 43.400000000000  122.421351000000  9.350000000000  1  # C
 43.400000000000  123.853179666700  9.350000000000  1  # C
 42.160000000000  124.569094000000  9.350000000000  1  # C
 42.160000000000  126.000922666700  9.350000000000  1  # C
 40.920000000000  126.716837000000  9.350000000000  1  # C
 40.920000000000  128.148665666700  9.350000000000  1  # C
 39.680000000000  128.864580000000  9.350000000000  1  # C
 39.680000000000  130.296408666700  9.350000000000  1  # C
 38.440000000000  131.012323000000  9.350000000000  1  # C
 38.440000000000  132.444151666700  9.350000000000  1  # C
 37.200000000000  133.160066000000  9.350000000000  1  # C
 37.200000000000  134.591894666700  9.350000000000  1  # C
 35.960000000000  135.307809000000  9.350000000000  1  # C
 35.960000000000  136.739637666700  9.350000000000  1  # C
 34.720000000000  137.455552000000  9.350000000000  1  # C
 34.720000000000  138.887380666700  9.350000000000  1  # C
 33.480000000000  139.603295000000  9.350000000000  1  # C
 33.480000000000  141.035123666700  9.350000000000  1  # C
 32.240000000000  141.751038000000  9.350000000000  1  # C
 32.240000000000  143.182866666700  9.350000000000  1  # C
 31.000000000000  143.898781000000  9.350000000000  1  # C
 31.000000000000  145.330609666700  9.350000000000  1  # C
 29.760000000000  146.046524000000  9.350000000000  1  # C
 29.760000000000  147.478352666700  9.350000000000  1  # C
 28.520000000000  148.194267000000  9.350000000000  1  # C
 86.800000000000  51.545832000000  9.350000000000  1  # C
 86.800000000000  52.977660666700  9.350000000000  1  # C
 85.560000000000  53.693575000000  9.350000000000  1  # C
 85.560000000000  55.125403666700  9.350000000000  1  # C
 84.320000000000  55.841318000000  9.350000000000  1  # C
 84.320000000000  57.273146666700  9.350000000000  1  # C
 83.080000000000  57.989061000000  9.350000000000  1  # C
 83.080000000000  59.420889666700  9.350000000000  1  # C
 81.840000000000  60.136804000000  9.350000000000  1  # C
 81.840000000000  61.568632666700  9.350000000000  1  # C
 80.600000000000  62.284547000000  9.350000000000  1  # C
 80.600000000000  63.716375666700  9.350000000000  1  # C
 79.360000000000  64.432290000000  9.350000000000  1  # C
 79.360000000000  65.864118666700  9.350000000000  1  # C
 78.120000000000  66.580033000000  9.350000000000  1  # C
 78.120000000000  68.011861666700  9.350000000000  1  # C
 76.880000000000  68.727776000000  9.350000000000  1  # C
 76.880000000000  70.159604666700  9.350000000000  1  # C
 75.640000000000  70.875519000000  9.350000000000  1  # C
 75.640000000000  72.307347666700  9.350000000000  1  # C
 74.400000000000  73.023262000000  9.350000000000  1  # C
 74.400000000000  74.455090666700  9.350000000000  1  # C
 73.160000000000  75.171005000000  9.350000000000  1  # C
 73.160000000000  76.602833666700  9.350000000000  1  # C
 71.920000000000  77.318748000000  9.350000000000  1  # C
 71.920000000000  78.750576666700  9.350000000000  1  # C
 70.680000000000  79.466491000000  9.350000000000  1  # C
 70.680000000000  80.898319666700  9.350000000000  1  # C
 69.440000000000  81.614234000000  9.350000000000  1  # C
 69.440000000000  83.046062666700  9.350000000000  1  # C
 68.200000000000  83.761977000000  9.350000000000  1  # C
 68.200000000000  85.193805666700  9.350000000000  1  # C
 66.960000000000  85.909720000000  9.350000000000  1  # C
 66.960000000000  87.341548666700  9.350000000000  1  # C
 65.720000000000  88.057463000000  9.350000000000  1  # C
 65.720000000000  89.489291666700  9.350000000000  1  # C
 64.480000000000  90.205206000000  9.350000000000  1  # C
 64.480000000000  91.637034666700  9.350000000000  1  # C
 63.240000000000  92.352949000000  9.350000000000  1  # C
 63.240000000000  93.784777666700  9.350000000000  1  # C
 62.000000000000  94.500692000000  9.350000000000  1  # C
 62.000000000000  95.932520666700  9.350000000000  1  # C
 60.760000000000  96.648435000000  9.350000000000  1  # C
 60.760000000000  98.080263666700  9.350000000000  1  # C
 59.520000000000  98.796178000000  9.350000000000  1  # C
 59.520000000000  100.228006666700  9.350000000000  1  # C
 58.280000000000  100.943921000000  9.350000000000  1  # C
 58.280000000000  102.375749666700  9.350000000000  1  # C
 57.040000000000  103.091664000000  9.350000000000  1  # C
 57.040000000000  104.523492666700  9.350000000000  1  # C
 55.800000000000  105.239407000000  9.350000000000  1  # C
 55.800000000000  106.671235666700  9.350000000000  1  # C
 54.560000000000  107.387150000000  9.350000000000  1  # C
 54.560000000000  108.818978666700  9.350000000000  1  # C
 53.320000000000  109.534893000000  9.350000000000  1  # C
 53.320000000000  110.966721666700  9.350000000000  1  # C
 52.080000000000  111.682636000000  9.350000000000  1  # C
 52.080000000000  113.114464666700  9.350000000000  1  # C
 50.840000000000  113.830379000000  9.350000000000  1  # C
 50.840000000000  115.262207666700  9.350000000000  1  # C
 49.600000000000  115.978122000000  9.350000000000  1  # C
 49.600000000000  117.409950666700  9.350000000000  1  # C
 48.360000000000  118.125865000000  9.350000000000  1  # C
 48.360000000000  119.557693666700  9.350000000000  1  # C
 47.120000000000  120.273608000000  9.350000000000  1  # C
 47.120000000000  121.705436666700  9.350000000000  1  # C
 45.880000000000  122.421351000000  9.350000000000  1  # C
 45.880000000000  123.853179666700  9.350000000000  1  # C
 44.640000000000  124.569094000000  9.350000000000  1  # C
 44.640000000000  126.000922666700  9.350000000000  1  # C
 43.400000000000  126.716837000000  9.350000000000  1  # C
 43.400000000000  128.148665666700  9.350000000000  1  # C
 42.160000000000  128.864580000000  9.350000000000  1  # C
 42.160000000000  130.296408666700  9.350000000000  1  # C
 40.920000000000  131.012323000000  9.350000000000  1  # C
 40.920000000000  132.444151666700  9.350000000000  1  # C
 39.680000000000  133.160066000000  9.350000000000  1  # C
 39.680000000000  134.591894666700  9.350000000000  1  # C
 38.440000000000  135.307809000000  9.350000000000  1  # C
 38.440000000000  136.739637666700  9.350000000000  1  # C
 37.200000000000  137.455552000000  9.350000000000  1  # C
 37.200000000000  138.887380666700  9.350000000000  1  # C
 35.960000000000  139.603295000000  9.350000000000  1  # C
 35.960000000000  141.035123666700  9.350000000000  1  # C
 34.720000000000  141.751038000000  9.350000000000  1  # C
 34.720000000000  143.182866666700  9.350000000000  1  # C
 33.480000000000  143.898781000000  9.350000000000  1  # C
 33.480000000000  145.330609666700  9.350000000000  1  # C
 32.240000000000  146.046524000000  9.350000000000  1  # C
 32.240000000000  147.478352666700  9.350000000000  1  # C
 31.000000000000  148.194267000000  9.350000000000  1  # C
 31.000000000000  149.626095666700  9.350000000000  1  # C
 89.280000000000  52.977660666700  9.350000000000  1  # C
 88.040000000000  53.693575000000  9.350000000000  1  # C
 88.040000000000  55.125403666700  9.350000000000  1  # C
 86.800000000000  55.841318000000  9.350000000000  1  # C
 86.800000000000  57.273146666700  9.350000000000  1  # C
 85.560000000000  57.989061000000  9.350000000000  1  # C
 85.560000000000  59.420889666700  9.350000000000  1  # C
 84.320000000000  60.136804000000  9.350000000000  1  # C
 84.320000000000  61.568632666700  9.350000000000  1  # C
 83.080000000000  62.284547000000  9.350000000000  1  # C
 83.080000000000  63.716375666700  9.350000000000  1  # C
 81.840000000000  64.432290000000  9.350000000000  1  # C
 81.840000000000  65.864118666700  9.350000000000  1  # C
 80.600000000000  66.580033000000  9.350000000000  1  # C
 80.600000000000  68.011861666700  9.350000000000  1  # C
 79.360000000000  68.727776000000  9.350000000000  1  # C
 79.360000000000  70.159604666700  9.350000000000  1  # C
 78.120000000000  70.875519000000  9.350000000000  1  # C
 78.120000000000  72.307347666700  9.350000000000  1  # C
 76.880000000000  73.023262000000  9.350000000000  1  # C
 76.880000000000  74.455090666700  9.350000000000  1  # C
 75.640000000000  75.171005000000  9.350000000000  1  # C
 75.640000000000  76.602833666700  9.350000000000  1  # C
 74.400000000000  77.318748000000  9.350000000000  1  # C
 74.400000000000  78.750576666700  9.350000000000  1  # C
 73.160000000000  79.466491000000  9.350000000000  1  # C
 73.160000000000  80.898319666700  9.350000000000  1  # C
 71.920000000000  81.614234000000  9.350000000000  1  # C
 71.920000000000  83.046062666700  9.350000000000  1  # C
 70.680000000000  83.761977000000  9.350000000000  1  # C
 70.680000000000  85.193805666700  9.350000000000  1  # C
 69.440000000000  85.909720000000  9.350000000000  1  # C
 69.440000000000  87.341548666700  9.350000000000  1  # C
 68.200000000000  88.057463000000  9.350000000000  1  # C
 68.200000000000  89.489291666700  9.350000000000  1  # C
 66.960000000000  90.205206000000  9.350000000000  1  # C
 66.960000000000  91.637034666700  9.350000000000  1  # C
 65.720000000000  92.352949000000  9.350000000000  1  # C
 65.720000000000  93.784777666700  9.350000000000  1  # C
 64.480000000000  94.500692000000  9.350000000000  1  # C
 64.480000000000  95.932520666700  9.350000000000  1  # C
 63.240000000000  96.648435000000  9.350000000000  1  # C
 63.240000000000  98.080263666700  9.350000000000  1  # C
 62.000000000000  98.796178000000  9.350000000000  1  # C
 62.000000000000  100.228006666700  9.350000000000  1  # C
 60.760000000000  100.943921000000  9.350000000000  1  # C
 60.760000000000  102.375749666700  9.350000000000  1  # C
 59.520000000000  103.091664000000  9.350000000000  1  # C
 59.520000000000  104.523492666700  9.350000000000  1  # C
 58.280000000000  105.239407000000  9.350000000000  1  # C
 58.280000000000  106.671235666700  9.350000000000  1  # C
 57.040000000000  107.387150000000  9.350000000000  1  # C
 57.040000000000  108.818978666700  9.350000000000  1  # C
 55.800000000000  109.534893000000  9.350000000000  1  # C
 55.800000000000  110.966721666700  9.350000000000  1  # C
 54.560000000000  111.682636000000  9.350000000000  1  # C
 54.560000000000  113.114464666700  9.350000000000  1  # C
 53.320000000000  113.830379000000  9.350000000000  1  # C
 53.320000000000  115.262207666700  9.350000000000  1  # C
 52.080000000000  115.978122000000  9.350000000000  1  # C
 52.080000000000  117.409950666700  9.350000000000  1  # C
 50.840000000000  118.125865000000  9.350000000000  1  # C
 50.840000000000  119.557693666700  9.350000000000  1  # C
 49.600000000000  120.273608000000  9.350000000000  1  # C
 49.600000000000  121.705436666700  9.350000000000  1  # C
 48.360000000000  122.421351000000  9.350000000000  1  # C
 48.360000000000  123.853179666700  9.350000000000  1  # C
 47.120000000000  124.569094000000  9.350000000000  1  # C
 47.120000000000  126.000922666700  9.350000000000  1  # C
 45.880000000000  126.716837000000  9.350000000000  1  # C
 45.880000000000  128.148665666700  9.350000000000  1  # C
 44.640000000000  128.864580000000  9.350000000000  1  # C
 44.640000000000  130.296408666700  9.350000000000  1  # C
 43.400000000000  131.012323000000  9.350000000000  1  # C
 43.400000000000  132.444151666700  9.350000000000  1  # C
 42.160000000000  133.160066000000  9.350000000000  1  # C
 42.160000000000  134.591894666700  9.350000000000  1  # C
 40.920000000000  135.307809000000  9.350000000000  1  # C
 40.920000000000  136.739637666700  9.350000000000  1  # C
 39.680000000000  137.455552000000  9.350000000000  1  # C
 39.680000000000  138.887380666700  9.350000000000  1  # C
 38.440000000000  139.603295000000  9.350000000000  1  # C
 38.440000000000  141.035123666700  9.350000000000  1  # C
 37.200000000000  141.751038000000  9.350000000000  1  # C
 37.200000000000  143.182866666700  9.350000000000  1  # C
 35.960000000000  143.898781000000  9.350000000000  1  # C
 35.960000000000  145.330609666700  9.350000000000  1  # C
 34.720000000000  146.046524000000  9.350000000000  1  # C
 34.720000000000  147.478352666700  9.350000000000  1  # C
 33.480000000000  148.194267000000  9.350000000000  1  # C
 33.480000000000  149.626095666700  9.350000000000  1  # C
 32.240000000000  150.342010000000  9.350000000000  1  # C
 90.520000000000  53.693575000000  9.350000000000  1  # C
 90.520000000000  55.125403666700  9.350000000000  1  # C
 89.280000000000  55.841318000000  9.350000000000  1  # C
 89.280000000000  57.273146666700  9.350000000000  1  # C
 88.040000000000  57.989061000000  9.350000000000  1  # C
 88.040000000000  59.420889666700  9.350000000000  1  # C
 86.800000000000  60.136804000000  9.350000000000  1  # C
 86.800000000000  61.568632666700  9.350000000000  1  # C
 85.560000000000  62.284547000000  9.350000000000  1  # C
 85.560000000000  63.716375666700  9.350000000000  1  # C
 84.320000000000  64.432290000000  9.350000000000  1  # C
 84.320000000000  65.864118666700  9.350000000000  1  # C
 83.080000000000  66.580033000000  9.350000000000  1  # C
 83.080000000000  68.011861666700  9.350000000000  1  # C
 81.840000000000  68.727776000000  9.350000000000  1  # C
 81.840000000000  70.159604666700  9.350000000000  1  # C
 80.600000000000  70.875519000000  9.350000000000  1  # C
 80.600000000000  72.307347666700  9.350000000000  1  # C
 79.360000000000  73.023262000000  9.350000000000  1  # C
 79.360000000000  74.455090666700  9.350000000000  1  # C
 78.120000000000  75.171005000000  9.350000000000  1  # C
 78.120000000000  76.602833666700  9.350000000000  1  # C
 76.880000000000  77.318748000000  9.350000000000  1  # C
 76.880000000000  78.750576666700  9.350000000000  1  # C
 75.640000000000  79.466491000000  9.350000000000  1  # C
 75.640000000000  80.898319666700  9.350000000000  1  # C
 74.400000000000  81.614234000000  9.350000000000  1  # C
 74.400000000000  83.046062666700  9.350000000000  1  # C
 73.160000000000  83.761977000000  9.350000000000  1  # C
 73.160000000000  85.193805666700  9.350000000000  1  # C
 71.920000000000  85.909720000000  9.350000000000  1  # C
 71.920000000000  87.341548666700  9.350000000000  1  # C
 70.680000000000  88.057463000000  9.350000000000  1  # C
 70.680000000000  89.489291666700  9.350000000000  1  # C
 69.440000000000  90.205206000000  9.350000000000  1  # C
 69.440000000000  91.637034666700  9.350000000000  1  # C
 68.200000000000  92.352949000000  9.350000000000  1  # C
 68.200000000000  93.784777666700  9.350000000000  1  # C
 66.960000000000  94.500692000000  9.350000000000  1  # C
 66.960000000000  95.932520666700  9.350000000000  1  # C
 65.720000000000  96.648435000000  9.350000000000  1  # C
 65.720000000000  98.080263666700  9.350000000000  1  # C
 64.480000000000  98.796178000000  9.350000000000  1  # C
 64.480000000000  100.228006666700  9.350000000000  1  # C
 63.240000000000  100.943921000000  9.350000000000  1  # C
 63.240000000000  102.375749666700  9.350000000000  1  # C
 62.000000000000  103.091664000000  9.350000000000  1  # C
 62.000000000000  104.523492666700  9.350000000000  1  # C
 60.760000000000  105.239407000000  9.350000000000  1  # C
 60.760000000000  106.671235666700  9.350000000000  1  # C
 59.520000000000  107.387150000000  9.350000000000  1  # C
 59.520000000000  108.818978666700  9.350000000000  1  # C
 58.280000000000  109.534893000000  9.350000000000  1  # C
 58.280000000000  110.966721666700  9.350000000000  1  # C
 57.040000000000  111.682636000000  9.350000000000  1  # C
 57.040000000000  113.114464666700  9.350000000000  1  # C
 55.800000000000  113.830379000000  9.350000000000  1  # C
 55.800000000000  115.262207666700  9.350000000000  1  # C
 54.560000000000  115.978122000000  9.350000000000  1  # C
 54.560000000000  117.409950666700  9.350000000000  1  # C
 53.320000000000  118.125865000000  9.350000000000  1  # C
 53.320000000000  119.557693666700  9.350000000000  1  # C
 52.080000000000  120.273608000000  9.350000000000  1  # C
 52.080000000000  121.705436666700  9.350000000000  1  # C
 50.840000000000  122.421351000000  9.350000000000  1  # C
 50.840000000000  123.853179666700  9.350000000000  1  # C
 49.600000000000  124.569094000000  9.350000000000  1  # C
 49.600000000000  126.000922666700  9.350000000000  1  # C
 48.360000000000  126.716837000000  9.350000000000  1  # C
 48.360000000000  128.148665666700  9.350000000000  1  # C
 47.120000000000  128.864580000000  9.350000000000  1  # C
 47.120000000000  130.296408666700  9.350000000000  1  # C
 45.880000000000  131.012323000000  9.350000000000  1  # C
 45.880000000000  132.444151666700  9.350000000000  1  # C
 44.640000000000  133.160066000000  9.350000000000  1  # C
 44.640000000000  134.591894666700  9.350000000000  1  # C
 43.400000000000  135.307809000000  9.350000000000  1  # C
 43.400000000000  136.739637666700  9.350000000000  1  # C
 42.160000000000  137.455552000000  9.350000000000  1  # C
 42.160000000000  138.887380666700  9.350000000000  1  # C
 40.920000000000  139.603295000000  9.350000000000  1  # C
 40.920000000000  141.035123666700  9.350000000000  1  # C
 39.680000000000  141.751038000000  9.350000000000  1  # C
 39.680000000000  143.182866666700  9.350000000000  1  # C
 38.440000000000  143.898781000000  9.350000000000  1  # C
 38.440000000000  145.330609666700  9.350000000000  1  # C
 37.200000000000  146.046524000000  9.350000000000  1  # C
 37.200000000000  147.478352666700  9.350000000000  1  # C
 35.960000000000  148.194267000000  9.350000000000  1  # C
 35.960000000000  149.626095666700  9.350000000000  1  # C
 34.720000000000  150.342010000000  9.350000000000  1  # C
 34.720000000000  151.773838666700  9.350000000000  1  # C
 93.000000000000  55.125403666700  9.350000000000  1  # C
 91.760000000000  55.841318000000  9.350000000000  1  # C
 91.760000000000  57.273146666700  9.350000000000  1  # C
 90.520000000000  57.989061000000  9.350000000000  1  # C
 90.520000000000  59.420889666700  9.350000000000  1  # C
 89.280000000000  60.136804000000  9.350000000000  1  # C
 89.280000000000  61.568632666700  9.350000000000  1  # C
 88.040000000000  62.284547000000  9.350000000000  1  # C
 88.040000000000  63.716375666700  9.350000000000  1  # C
 86.800000000000  64.432290000000  9.350000000000  1  # C
 86.800000000000  65.864118666700  9.350000000000  1  # C
 85.560000000000  66.580033000000  9.350000000000  1  # C
 85.560000000000  68.011861666700  9.350000000000  1  # C
 84.320000000000  68.727776000000  9.350000000000  1  # C
 84.320000000000  70.159604666700  9.350000000000  1  # C
 83.080000000000  70.875519000000  9.350000000000  1  # C
 83.080000000000  72.307347666700  9.350000000000  1  # C
 81.840000000000  73.023262000000  9.350000000000  1  # C
 81.840000000000  74.455090666700  9.350000000000  1  # C
 80.600000000000  75.171005000000  9.350000000000  1  # C
 80.600000000000  76.602833666700  9.350000000000  1  # C
 79.360000000000  77.318748000000  9.350000000000  1  # C
 79.360000000000  78.750576666700  9.350000000000  1  # C
 78.120000000000  79.466491000000  9.350000000000  1  # C
 78.120000000000  80.898319666700  9.350000000000  1  # C
 76.880000000000  81.614234000000  9.350000000000  1  # C
 76.880000000000  83.046062666700  9.350000000000  1  # C
 75.640000000000  83.761977000000  9.350000000000  1  # C
 75.640000000000  85.193805666700  9.350000000000  1  # C
 74.400000000000  85.909720000000  9.350000000000  1  # C
 74.400000000000  87.341548666700  9.350000000000  1  # C
 73.160000000000  88.057463000000  9.350000000000  1  # C
 73.160000000000  89.489291666700  9.350000000000  1  # C
 71.920000000000  90.205206000000  9.350000000000  1  # C
 71.920000000000  91.637034666700  9.350000000000  1  # C
 70.680000000000  92.352949000000  9.350000000000  1  # C
 70.680000000000  93.784777666700  9.350000000000  1  # C
 69.440000000000  94.500692000000  9.350000000000  1  # C
 69.440000000000  95.932520666700  9.350000000000  1  # C
 68.200000000000  96.648435000000  9.350000000000  1  # C
 68.200000000000  98.080263666700  9.350000000000  1  # C
 66.960000000000  98.796178000000  9.350000000000  1  # C
 66.960000000000  100.228006666700  9.350000000000  1  # C
 65.720000000000  100.943921000000  9.350000000000  1  # C
 65.720000000000  102.375749666700  9.350000000000  1  # C
 64.480000000000  103.091664000000  9.350000000000  1  # C
 64.480000000000  104.523492666700  9.350000000000  1  # C
 63.240000000000  105.239407000000  9.350000000000  1  # C
 63.240000000000  106.671235666700  9.350000000000  1  # C
 62.000000000000  107.387150000000  9.350000000000  1  # C
 62.000000000000  108.818978666700  9.350000000000  1  # C
 60.760000000000  109.534893000000  9.350000000000  1  # C
 60.760000000000  110.966721666700  9.350000000000  1  # C
 59.520000000000  111.682636000000  9.350000000000  1  # C
 59.520000000000  113.114464666700  9.350000000000  1  # C
 58.280000000000  113.830379000000  9.350000000000  1  # C
 58.280000000000  115.262207666700  9.350000000000  1  # C
 57.040000000000  115.978122000000  9.350000000000  1  # C
 57.040000000000  117.409950666700  9.350000000000  1  # C
 55.800000000000  118.125865000000  9.350000000000  1  # C
 55.800000000000  119.557693666700  9.350000000000  1  # C
 54.560000000000  120.273608000000  9.350000000000  1  # C
 54.560000000000  121.705436666700  9.350000000000  1  # C
 53.320000000000  122.421351000000  9.350000000000  1  # C
 53.320000000000  123.853179666700  9.350000000000  1  # C
 52.080000000000  124.569094000000  9.350000000000  1  # C
 52.080000000000  126.000922666700  9.350000000000  1  # C
 50.840000000000  126.716837000000  9.350000000000  1  # C
 50.840000000000  128.148665666700  9.350000000000  1  # C
 49.600000000000  128.864580000000  9.350000000000  1  # C
 49.600000000000  130.296408666700  9.350000000000  1  # C
 48.360000000000  131.012323000000  9.350000000000  1  # C
 48.360000000000  132.444151666700  9.350000000000  1  # C
 47.120000000000  133.160066000000  9.350000000000  1  # C
 47.120000000000  134.591894666700  9.350000000000  1  # C
 45.880000000000  135.307809000000  9.350000000000  1  # C
 45.880000000000  136.739637666700  9.350000000000  1  # C
 44.640000000000  137.455552000000  9.350000000000  1  # C
 44.640000000000  138.887380666700  9.350000000000  1  # C
 43.400000000000  139.603295000000  9.350000000000  1  # C
 43.400000000000  141.035123666700  9.350000000000  1  # C
 42.160000000000  141.751038000000  9.350000000000  1  # C
 42.160000000000  143.182866666700  9.350000000000  1  # C
 40.920000000000  143.898781000000  9.350000000000  1  # C
 40.920000000000  145.330609666700  9.350000000000  1  # C
 39.680000000000  146.046524000000  9.350000000000  1  # C
 39.680000000000  147.478352666700  9.350000000000  1  # C
 38.440000000000  148.194267000000  9.350000000000  1  # C
 38.440000000000  149.626095666700  9.350000000000  1  # C
 37.200000000000  150.342010000000  9.350000000000  1  # C
 37.200000000000  151.773838666700  9.350000000000  1  # C
 35.960000000000  152.489753000000  9.350000000000  1  # C
 94.240000000000  55.841318000000  9.350000000000  1  # C
 94.240000000000  57.273146666700  9.350000000000  1  # C
 93.000000000000  57.989061000000  9.350000000000  1  # C
 93.000000000000  59.420889666700  9.350000000000  1  # C
 91.760000000000  60.136804000000  9.350000000000  1  # C
 91.760000000000  61.568632666700  9.350000000000  1  # C
 90.520000000000  62.284547000000  9.350000000000  1  # C
 90.520000000000  63.716375666700  9.350000000000  1  # C
 89.280000000000  64.432290000000  9.350000000000  1  # C
 89.280000000000  65.864118666700  9.350000000000  1  # C
 88.040000000000  66.580033000000  9.350000000000  1  # C
 88.040000000000  68.011861666700  9.350000000000  1  # C
 86.800000000000  68.727776000000  9.350000000000  1  # C
 86.800000000000  70.159604666700  9.350000000000  1  # C
 85.560000000000  70.875519000000  9.350000000000  1  # C
 85.560000000000  72.307347666700  9.350000000000  1  # C
 84.320000000000  73.023262000000  9.350000000000  1  # C
 84.320000000000  74.455090666700  9.350000000000  1  # C
 83.080000000000  75.171005000000  9.350000000000  1  # C
 83.080000000000  76.602833666700  9.350000000000  1  # C
 81.840000000000  77.318748000000  9.350000000000  1  # C
 81.840000000000  78.750576666700  9.350000000000  1  # C
 80.600000000000  79.466491000000  9.350000000000  1  # C
 80.600000000000  80.898319666700  9.350000000000  1  # C
 79.360000000000  81.614234000000  9.350000000000  1  # C
 79.360000000000  83.046062666700  9.350000000000  1  # C
 78.120000000000  83.761977000000  9.350000000000  1  # C
 78.120000000000  85.193805666700  9.350000000000  1  # C
 76.880000000000  85.909720000000  9.350000000000  1  # C
 76.880000000000  87.341548666700  9.350000000000  1  # C
 75.640000000000  88.057463000000  9.350000000000  1  # C
 75.640000000000  89.489291666700  9.350000000000  1  # C
 74.400000000000  90.205206000000  9.350000000000  1  # C
 74.400000000000  91.637034666700  9.350000000000  1  # C
 73.160000000000  92.352949000000  9.350000000000  1  # C
 73.160000000000  93.784777666700  9.350000000000  1  # C
 71.920000000000  94.500692000000  9.350000000000  1  # C
 71.920000000000  95.932520666700  9.350000000000  1  # C
 70.680000000000  96.648435000000  9.350000000000  1  # C
 70.680000000000  98.080263666700  9.350000000000  1  # C
 69.440000000000  98.796178000000  9.350000000000  1  # C
 69.440000000000  100.228006666700  9.350000000000  1  # C
 68.200000000000  100.943921000000  9.350000000000  1  # C
 68.200000000000  102.375749666700  9.350000000000  1  # C
 66.960000000000  103.091664000000  9.350000000000  1  # C
 66.960000000000  104.523492666700  9.350000000000  1  # C
 65.720000000000  105.239407000000  9.350000000000  1  # C
 65.720000000000  106.671235666700  9.350000000000  1  # C
 64.480000000000  107.387150000000  9.350000000000  1  # C
 64.480000000000  108.818978666700  9.350000000000  1  # C
 63.240000000000  109.534893000000  9.350000000000  1  # C
 63.240000000000  110.966721666700  9.350000000000  1  # C
 62.000000000000  111.682636000000  9.350000000000  1  # C
 62.000000000000  113.114464666700  9.350000000000  1  # C
 60.760000000000  113.830379000000  9.350000000000  1  # C
 60.760000000000  115.262207666700  9.350000000000  1  # C
 59.520000000000  115.978122000000  9.350000000000  1  # C
 59.520000000000  117.409950666700  9.350000000000  1  # C
 58.280000000000  118.125865000000  9.350000000000  1  # C
 58.280000000000  119.557693666700  9.350000000000  1  # C
 57.040000000000  120.273608000000  9.350000000000  1  # C
 57.040000000000  121.705436666700  9.350000000000  1  # C
 55.800000000000  122.421351000000  9.350000000000  1  # C
 55.800000000000  123.853179666700  9.350000000000  1  # C
 54.560000000000  124.569094000000  9.350000000000  1  # C
 54.560000000000  126.000922666700  9.350000000000  1  # C
 53.320000000000  126.716837000000  9.350000000000  1  # C
 53.320000000000  128.148665666700  9.350000000000  1  # C
 52.080000000000  128.864580000000  9.350000000000  1  # C
 52.080000000000  130.296408666700  9.350000000000  1  # C
 50.840000000000  131.012323000000  9.350000000000  1  # C
 50.840000000000  132.444151666700  9.350000000000  1  # C
 49.600000000000  133.160066000000  9.350000000000  1  # C
 49.600000000000  134.591894666700  9.350000000000  1  # C
 48.360000000000  135.307809000000  9.350000000000  1  # C
 48.360000000000  136.739637666700  9.350000000000  1  # C
 47.120000000000  137.455552000000  9.350000000000  1  # C
 47.120000000000  138.887380666700  9.350000000000  1  # C
 45.880000000000  139.603295000000  9.350000000000  1  # C
 45.880000000000  141.035123666700  9.350000000000  1  # C
 44.640000000000  141.751038000000  9.350000000000  1  # C
 44.640000000000  143.182866666700  9.350000000000  1  # C
 43.400000000000  143.898781000000  9.350000000000  1  # C
 43.400000000000  145.330609666700  9.350000000000  1  # C
 42.160000000000  146.046524000000  9.350000000000  1  # C
 42.160000000000  147.478352666700  9.350000000000  1  # C
 40.920000000000  148.194267000000  9.350000000000  1  # C
 40.920000000000  149.626095666700  9.350000000000  1  # C
 39.680000000000  150.342010000000  9.350000000000  1  # C
 39.680000000000  151.773838666700  9.350000000000  1  # C
 38.440000000000  152.489753000000  9.350000000000  1  # C
 38.440000000000  153.921581666700  9.350000000000  1  # C
 96.720000000000  57.273146666700  9.350000000000  1  # C
 95.480000000000  57.989061000000  9.350000000000  1  # C
 95.480000000000  59.420889666700  9.350000000000  1  # C
 94.240000000000  60.136804000000  9.350000000000  1  # C
 94.240000000000  61.568632666700  9.350000000000  1  # C
 93.000000000000  62.284547000000  9.350000000000  1  # C
 93.000000000000  63.716375666700  9.350000000000  1  # C
 91.760000000000  64.432290000000  9.350000000000  1  # C
 91.760000000000  65.864118666700  9.350000000000  1  # C
 90.520000000000  66.580033000000  9.350000000000  1  # C
 90.520000000000  68.011861666700  9.350000000000  1  # C
 89.280000000000  68.727776000000  9.350000000000  1  # C
 89.280000000000  70.159604666700  9.350000000000  1  # C
 88.040000000000  70.875519000000  9.350000000000  1  # C
 88.040000000000  72.307347666700  9.350000000000  1  # C
 86.800000000000  73.023262000000  9.350000000000  1  # C
 86.800000000000  74.455090666700  9.350000000000  1  # C
 85.560000000000  75.171005000000  9.350000000000  1  # C
 85.560000000000  76.602833666700  9.350000000000  1  # C
 84.320000000000  77.318748000000  9.350000000000  1  # C
 84.320000000000  78.750576666700  9.350000000000  1  # C
 83.080000000000  79.466491000000  9.350000000000  1  # C
 83.080000000000  80.898319666700  9.350000000000  1  # C
 81.840000000000  81.614234000000  9.350000000000  1  # C
 81.840000000000  83.046062666700  9.350000000000  1  # C
 80.600000000000  83.761977000000  9.350000000000  1  # C
 80.600000000000  85.193805666700  9.350000000000  1  # C
 79.360000000000  85.909720000000  9.350000000000  1  # C
 79.360000000000  87.341548666700  9.350000000000  1  # C
 78.120000000000  88.057463000000  9.350000000000  1  # C
 78.120000000000  89.489291666700  9.350000000000  1  # C
 76.880000000000  90.205206000000  9.350000000000  1  # C
 76.880000000000  91.637034666700  9.350000000000  1  # C
 75.640000000000  92.352949000000  9.350000000000  1  # C
 75.640000000000  93.784777666700  9.350000000000  1  # C
 74.400000000000  94.500692000000  9.350000000000  1  # C
 74.400000000000  95.932520666700  9.350000000000  1  # C
 73.160000000000  96.648435000000  9.350000000000  1  # C
 73.160000000000  98.080263666700  9.350000000000  1  # C
 71.920000000000  98.796178000000  9.350000000000  1  # C
 71.920000000000  100.228006666700  9.350000000000  1  # C
 70.680000000000  100.943921000000  9.350000000000  1  # C
 70.680000000000  102.375749666700  9.350000000000  1  # C
 69.440000000000  103.091664000000  9.350000000000  1  # C
 69.440000000000  104.523492666700  9.350000000000  1  # C
 68.200000000000  105.239407000000  9.350000000000  1  # C
 68.200000000000  106.671235666700  9.350000000000  1  # C
 66.960000000000  107.387150000000  9.350000000000  1  # C
 66.960000000000  108.818978666700  9.350000000000  1  # C
 65.720000000000  109.534893000000  9.350000000000  1  # C
 65.720000000000  110.966721666700  9.350000000000  1  # C
 64.480000000000  111.682636000000  9.350000000000  1  # C
 64.480000000000  113.114464666700  9.350000000000  1  # C
 63.240000000000  113.830379000000  9.350000000000  1  # C
 63.240000000000  115.262207666700  9.350000000000  1  # C
 62.000000000000  115.978122000000  9.350000000000  1  # C
 62.000000000000  117.409950666700  9.350000000000  1  # C
 60.760000000000  118.125865000000  9.350000000000  1  # C
 60.760000000000  119.557693666700  9.350000000000  1  # C
 59.520000000000  120.273608000000  9.350000000000  1  # C
 59.520000000000  121.705436666700  9.350000000000  1  # C
 58.280000000000  122.421351000000  9.350000000000  1  # C
 58.280000000000  123.853179666700  9.350000000000  1  # C
 57.040000000000  124.569094000000  9.350000000000  1  # C
 57.040000000000  126.000922666700  9.350000000000  1  # C
 55.800000000000  126.716837000000  9.350000000000  1  # C
 55.800000000000  128.148665666700  9.350000000000  1  # C
 54.560000000000  128.864580000000  9.350000000000  1  # C
 54.560000000000  130.296408666700  9.350000000000  1  # C
 53.320000000000  131.012323000000  9.350000000000  1  # C
 53.320000000000  132.444151666700  9.350000000000  1  # C
 52.080000000000  133.160066000000  9.350000000000  1  # C
 52.080000000000  134.591894666700  9.350000000000  1  # C
 50.840000000000  135.307809000000  9.350000000000  1  # C
 50.840000000000  136.739637666700  9.350000000000  1  # C
 49.600000000000  137.455552000000  9.350000000000  1  # C
 49.600000000000  138.887380666700  9.350000000000  1  # C
 48.360000000000  139.603295000000  9.350000000000  1  # C
 48.360000000000  141.035123666700  9.350000000000  1  # C
 47.120000000000  141.751038000000  9.350000000000  1  # C
 47.120000000000  143.182866666700  9.350000000000  1  # C
 45.880000000000  143.898781000000  9.350000000000  1  # C
 45.880000000000  145.330609666700  9.350000000000  1  # C
 44.640000000000  146.046524000000  9.350000000000  1  # C
 44.640000000000  147.478352666700  9.350000000000  1  # C
 43.400000000000  148.194267000000  9.350000000000  1  # C
 43.400000000000  149.626095666700  9.350000000000  1  # C
 42.160000000000  150.342010000000  9.350000000000  1  # C
 42.160000000000  151.773838666700  9.350000000000  1  # C
 40.920000000000  152.489753000000  9.350000000000  1  # C
 40.920000000000  153.921581666700  9.350000000000  1  # C
 39.680000000000  154.637496000000  9.350000000000  1  # C
 97.960000000000  57.989061000000  9.350000000000  1  # C
 97.960000000000  59.420889666700  9.350000000000  1  # C
 96.720000000000  60.136804000000  9.350000000000  1  # C
 96.720000000000  61.568632666700  9.350000000000  1  # C
 95.480000000000  62.284547000000  9.350000000000  1  # C
 95.480000000000  63.716375666700  9.350000000000  1  # C
 94.240000000000  64.432290000000  9.350000000000  1  # C
 94.240000000000  65.864118666700  9.350000000000  1  # C
 93.000000000000  66.580033000000  9.350000000000  1  # C
 93.000000000000  68.011861666700  9.350000000000  1  # C
 91.760000000000  68.727776000000  9.350000000000  1  # C
 91.760000000000  70.159604666700  9.350000000000  1  # C
 90.520000000000  70.875519000000  9.350000000000  1  # C
 90.520000000000  72.307347666700  9.350000000000  1  # C
 89.280000000000  73.023262000000  9.350000000000  1  # C
 89.280000000000  74.455090666700  9.350000000000  1  # C
 88.040000000000  75.171005000000  9.350000000000  1  # C
 88.040000000000  76.602833666700  9.350000000000  1  # C
 86.800000000000  77.318748000000  9.350000000000  1  # C
 86.800000000000  78.750576666700  9.350000000000  1  # C
 85.560000000000  79.466491000000  9.350000000000  1  # C
 85.560000000000  80.898319666700  9.350000000000  1  # C
 84.320000000000  81.614234000000  9.350000000000  1  # C
 84.320000000000  83.046062666700  9.350000000000  1  # C
 83.080000000000  83.761977000000  9.350000000000  1  # C
 83.080000000000  85.193805666700  9.350000000000  1  # C
 81.840000000000  85.909720000000  9.350000000000  1  # C
 81.840000000000  87.341548666700  9.350000000000  1  # C
 80.600000000000  88.057463000000  9.350000000000  1  # C
 80.600000000000  89.489291666700  9.350000000000  1  # C
 79.360000000000  90.205206000000  9.350000000000  1  # C
 79.360000000000  91.637034666700  9.350000000000  1  # C
 78.120000000000  92.352949000000  9.350000000000  1  # C
 78.120000000000  93.784777666700  9.350000000000  1  # C
 76.880000000000  94.500692000000  9.350000000000  1  # C
 76.880000000000  95.932520666700  9.350000000000  1  # C
 75.640000000000  96.648435000000  9.350000000000  1  # C
 75.640000000000  98.080263666700  9.350000000000  1  # C
 74.400000000000  98.796178000000  9.350000000000  1  # C
 74.400000000000  100.228006666700  9.350000000000  1  # C
 73.160000000000  100.943921000000  9.350000000000  1  # C
 73.160000000000  102.375749666700  9.350000000000  1  # C
 71.920000000000  103.091664000000  9.350000000000  1  # C
 71.920000000000  104.523492666700  9.350000000000  1  # C
 70.680000000000  105.239407000000  9.350000000000  1  # C
 70.680000000000  106.671235666700  9.350000000000  1  # C
 69.440000000000  107.387150000000  9.350000000000  1  # C
 69.440000000000  108.818978666700  9.350000000000  1  # C
 68.200000000000  109.534893000000  9.350000000000  1  # C
 68.200000000000  110.966721666700  9.350000000000  1  # C
 66.960000000000  111.682636000000  9.350000000000  1  # C
 66.960000000000  113.114464666700  9.350000000000  1  # C
 65.720000000000  113.830379000000  9.350000000000  1  # C
 65.720000000000  115.262207666700  9.350000000000  1  # C
 64.480000000000  115.978122000000  9.350000000000  1  # C
 64.480000000000  117.409950666700  9.350000000000  1  # C
 63.240000000000  118.125865000000  9.350000000000  1  # C
 63.240000000000  119.557693666700  9.350000000000  1  # C
 62.000000000000  120.273608000000  9.350000000000  1  # C
 62.000000000000  121.705436666700  9.350000000000  1  # C
 60.760000000000  122.421351000000  9.350000000000  1  # C
 60.760000000000  123.853179666700  9.350000000000  1  # C
 59.520000000000  124.569094000000  9.350000000000  1  # C
 59.520000000000  126.000922666700  9.350000000000  1  # C
 58.280000000000  126.716837000000  9.350000000000  1  # C
 58.280000000000  128.148665666700  9.350000000000  1  # C
 57.040000000000  128.864580000000  9.350000000000  1  # C
 57.040000000000  130.296408666700  9.350000000000  1  # C
 55.800000000000  131.012323000000  9.350000000000  1  # C
 55.800000000000  132.444151666700  9.350000000000  1  # C
 54.560000000000  133.160066000000  9.350000000000  1  # C
 54.560000000000  134.591894666700  9.350000000000  1  # C
 53.320000000000  135.307809000000  9.350000000000  1  # C
 53.320000000000  136.739637666700  9.350000000000  1  # C
 52.080000000000  137.455552000000  9.350000000000  1  # C
 52.080000000000  138.887380666700  9.350000000000  1  # C
 50.840000000000  139.603295000000  9.350000000000  1  # C
 50.840000000000  141.035123666700  9.350000000000  1  # C
 49.600000000000  141.751038000000  9.350000000000  1  # C
 49.600000000000  143.182866666700  9.350000000000  1  # C
 48.360000000000  143.898781000000  9.350000000000  1  # C
 48.360000000000  145.330609666700  9.350000000000  1  # C
 47.120000000000  146.046524000000  9.350000000000  1  # C
 47.120000000000  147.478352666700  9.350000000000  1  # C
 45.880000000000  148.194267000000  9.350000000000  1  # C
 45.880000000000  149.626095666700  9.350000000000  1  # C
 44.640000000000  150.342010000000  9.350000000000  1  # C
 44.640000000000  151.773838666700  9.350000000000  1  # C
 43.400000000000  152.489753000000  9.350000000000  1  # C
 43.400000000000  153.921581666700  9.350000000000  1  # C
 42.160000000000  154.637496000000  9.350000000000  1  # C
 42.160000000000  156.069324666700  9.350000000000  1  # C
 100.440000000000  59.420889666700  9.350000000000  1  # C
 99.200000000000  60.136804000000  9.350000000000  1  # C
 99.200000000000  61.568632666700  9.350000000000  1  # C
 97.960000000000  62.284547000000  9.350000000000  1  # C
 97.960000000000  63.716375666700  9.350000000000  1  # C
 96.720000000000  64.432290000000  9.350000000000  1  # C
 96.720000000000  65.864118666700  9.350000000000  1  # C
 95.480000000000  66.580033000000  9.350000000000  1  # C
 95.480000000000  68.011861666700  9.350000000000  1  # C
 94.240000000000  68.727776000000  9.350000000000  1  # C
 94.240000000000  70.159604666700  9.350000000000  1  # C
 93.000000000000  70.875519000000  9.350000000000  1  # C
 93.000000000000  72.307347666700  9.350000000000  1  # C
 91.760000000000  73.023262000000  9.350000000000  1  # C
 91.760000000000  74.455090666700  9.350000000000  1  # C
 90.520000000000  75.171005000000  9.350000000000  1  # C
 90.520000000000  76.602833666700  9.350000000000  1  # C
 89.280000000000  77.318748000000  9.350000000000  1  # C
 89.280000000000  78.750576666700  9.350000000000  1  # C
 88.040000000000  79.466491000000  9.350000000000  1  # C
 88.040000000000  80.898319666700  9.350000000000  1  # C
 86.800000000000  81.614234000000  9.350000000000  1  # C
 86.800000000000  83.046062666700  9.350000000000  1  # C
 85.560000000000  83.761977000000  9.350000000000  1  # C
 85.560000000000  85.193805666700  9.350000000000  1  # C
 84.320000000000  85.909720000000  9.350000000000  1  # C
 84.320000000000  87.341548666700  9.350000000000  1  # C
 83.080000000000  88.057463000000  9.350000000000  1  # C
 83.080000000000  89.489291666700  9.350000000000  1  # C
 81.840000000000  90.205206000000  9.350000000000  1  # C
 81.840000000000  91.637034666700  9.350000000000  1  # C
 80.600000000000  92.352949000000  9.350000000000  1  # C
 80.600000000000  93.784777666700  9.350000000000  1  # C
 79.360000000000  94.500692000000  9.350000000000  1  # C
 79.360000000000  95.932520666700  9.350000000000  1  # C
 78.120000000000  96.648435000000  9.350000000000  1  # C
 78.120000000000  98.080263666700  9.350000000000  1  # C
 76.880000000000  98.796178000000  9.350000000000  1  # C
 76.880000000000  100.228006666700  9.350000000000  1  # C
 75.640000000000  100.943921000000  9.350000000000  1  # C
 75.640000000000  102.375749666700  9.350000000000  1  # C
 74.400000000000  103.091664000000  9.350000000000  1  # C
 74.400000000000  104.523492666700  9.350000000000  1  # C
 73.160000000000  105.239407000000  9.350000000000  1  # C
 73.160000000000  106.671235666700  9.350000000000  1  # C
 71.920000000000  107.387150000000  9.350000000000  1  # C
 71.920000000000  108.818978666700  9.350000000000  1  # C
 70.680000000000  109.534893000000  9.350000000000  1  # C
 70.680000000000  110.966721666700  9.350000000000  1  # C
 69.440000000000  111.682636000000  9.350000000000  1  # C
 69.440000000000  113.114464666700  9.350000000000  1  # C
 68.200000000000  113.830379000000  9.350000000000  1  # C
 68.200000000000  115.262207666700  9.350000000000  1  # C
 66.960000000000  115.978122000000  9.350000000000  1  # C
 66.960000000000  117.409950666700  9.350000000000  1  # C
 65.720000000000  118.125865000000  9.350000000000  1  # C
 65.720000000000  119.557693666700  9.350000000000  1  # C
 64.480000000000  120.273608000000  9.350000000000  1  # C
 64.480000000000  121.705436666700  9.350000000000  1  # C
 63.240000000000  122.421351000000  9.350000000000  1  # C
 63.240000000000  123.853179666700  9.350000000000  1  # C
 62.000000000000  124.569094000000  9.350000000000  1  # C
 62.000000000000  126.000922666700  9.350000000000  1  # C
 60.760000000000  126.716837000000  9.350000000000  1  # C
 60.760000000000  128.148665666700  9.350000000000  1  # C
 59.520000000000  128.864580000000  9.350000000000  1  # C
 59.520000000000  130.296408666700  9.350000000000  1  # C
 58.280000000000  131.012323000000  9.350000000000  1  # C
 58.280000000000  132.444151666700  9.350000000000  1  # C
 57.040000000000  133.160066000000  9.350000000000  1  # C
 57.040000000000  134.591894666700  9.350000000000  1  # C
 55.800000000000  135.307809000000  9.350000000000  1  # C
 55.800000000000  136.739637666700  9.350000000000  1  # C
 54.560000000000  137.455552000000  9.350000000000  1  # C
 54.560000000000  138.887380666700  9.350000000000  1  # C
 53.320000000000  139.603295000000  9.350000000000  1  # C
 53.320000000000  141.035123666700  9.350000000000  1  # C
 52.080000000000  141.751038000000  9.350000000000  1  # C
 52.080000000000  143.182866666700  9.350000000000  1  # C
 50.840000000000  143.898781000000  9.350000000000  1  # C
 50.840000000000  145.330609666700  9.350000000000  1  # C
 49.600000000000  146.046524000000  9.350000000000  1  # C
 49.600000000000  147.478352666700  9.350000000000  1  # C
 48.360000000000  148.194267000000  9.350000000000  1  # C
 48.360000000000  149.626095666700  9.350000000000  1  # C
 47.120000000000  150.342010000000  9.350000000000  1  # C
 47.120000000000  151.773838666700  9.350000000000  1  # C
 45.880000000000  152.489753000000  9.350000000000  1  # C
 45.880000000000  153.921581666700  9.350000000000  1  # C
 44.640000000000  154.637496000000  9.350000000000  1  # C
 44.640000000000  156.069324666700  9.350000000000  1  # C
 43.400000000000  156.785239000000  9.350000000000  1  # C
 101.680000000000  60.136804000000  9.350000000000  1  # C
 101.680000000000  61.568632666700  9.350000000000  1  # C
 100.440000000000  62.284547000000  9.350000000000  1  # C
 100.440000000000  63.716375666700  9.350000000000  1  # C
 99.200000000000  64.432290000000  9.350000000000  1  # C
 99.200000000000  65.864118666700  9.350000000000  1  # C
 97.960000000000  66.580033000000  9.350000000000  1  # C
 97.960000000000  68.011861666700  9.350000000000  1  # C
 96.720000000000  68.727776000000  9.350000000000  1  # C
 96.720000000000  70.159604666700  9.350000000000  1  # C
 95.480000000000  70.875519000000  9.350000000000  1  # C
 95.480000000000  72.307347666700  9.350000000000  1  # C
 94.240000000000  73.023262000000  9.350000000000  1  # C
 94.240000000000  74.455090666700  9.350000000000  1  # C
 93.000000000000  75.171005000000  9.350000000000  1  # C
 93.000000000000  76.602833666700  9.350000000000  1  # C
 91.760000000000  77.318748000000  9.350000000000  1  # C
 91.760000000000  78.750576666700  9.350000000000  1  # C
 90.520000000000  79.466491000000  9.350000000000  1  # C
 90.520000000000  80.898319666700  9.350000000000  1  # C
 89.280000000000  81.614234000000  9.350000000000  1  # C
 89.280000000000  83.046062666700  9.350000000000  1  # C
 88.040000000000  83.761977000000  9.350000000000  1  # C
 88.040000000000  85.193805666700  9.350000000000  1  # C
 86.800000000000  85.909720000000  9.350000000000  1  # C
 86.800000000000  87.341548666700  9.350000000000  1  # C
 85.560000000000  88.057463000000  9.350000000000  1  # C
 85.560000000000  89.489291666700  9.350000000000  1  # C
 84.320000000000  90.205206000000  9.350000000000  1  # C
 84.320000000000  91.637034666700  9.350000000000  1  # C
 83.080000000000  92.352949000000  9.350000000000  1  # C
 83.080000000000  93.784777666700  9.350000000000  1  # C
 81.840000000000  94.500692000000  9.350000000000  1  # C
 81.840000000000  95.932520666700  9.350000000000  1  # C
 80.600000000000  96.648435000000  9.350000000000  1  # C
 80.600000000000  98.080263666700  9.350000000000  1  # C
 79.360000000000  98.796178000000  9.350000000000  1  # C
 79.360000000000  100.228006666700  9.350000000000  1  # C
 78.120000000000  100.943921000000  9.350000000000  1  # C
 78.120000000000  102.375749666700  9.350000000000  1  # C
 76.880000000000  103.091664000000  9.350000000000  1  # C
 76.880000000000  104.523492666700  9.350000000000  1  # C
 75.640000000000  105.239407000000  9.350000000000  1  # C
 75.640000000000  106.671235666700  9.350000000000  1  # C
 74.400000000000  107.387150000000  9.350000000000  1  # C
 74.400000000000  108.818978666700  9.350000000000  1  # C
 73.160000000000  109.534893000000  9.350000000000  1  # C
 73.160000000000  110.966721666700  9.350000000000  1  # C
 71.920000000000  111.682636000000  9.350000000000  1  # C
 71.920000000000  113.114464666700  9.350000000000  1  # C
 70.680000000000  113.830379000000  9.350000000000  1  # C
 70.680000000000  115.262207666700  9.350000000000  1  # C
 69.440000000000  115.978122000000  9.350000000000  1  # C
 69.440000000000  117.409950666700  9.350000000000  1  # C
 68.200000000000  118.125865000000  9.350000000000  1  # C
 68.200000000000  119.557693666700  9.350000000000  1  # C
 66.960000000000  120.273608000000  9.350000000000  1  # C
 66.960000000000  121.705436666700  9.350000000000  1  # C
 65.720000000000  122.421351000000  9.350000000000  1  # C
 65.720000000000  123.853179666700  9.350000000000  1  # C
 64.480000000000  124.569094000000  9.350000000000  1  # C
 64.480000000000  126.000922666700  9.350000000000  1  # C
 63.240000000000  126.716837000000  9.350000000000  1  # C
 63.240000000000  128.148665666700  9.350000000000  1  # C
 62.000000000000  128.864580000000  9.350000000000  1  # C
 62.000000000000  130.296408666700  9.350000000000  1  # C
 60.760000000000  131.012323000000  9.350000000000  1  # C
 60.760000000000  132.444151666700  9.350000000000  1  # C
 59.520000000000  133.160066000000  9.350000000000  1  # C
 59.520000000000  134.591894666700  9.350000000000  1  # C
 58.280000000000  135.307809000000  9.350000000000  1  # C
 58.280000000000  136.739637666700  9.350000000000  1  # C
 57.040000000000  137.455552000000  9.350000000000  1  # C
 57.040000000000  138.887380666700  9.350000000000  1  # C
 55.800000000000  139.603295000000  9.350000000000  1  # C
 55.800000000000  141.035123666700  9.350000000000  1  # C
 54.560000000000  141.751038000000  9.350000000000  1  # C
 54.560000000000  143.182866666700  9.350000000000  1  # C
 53.320000000000  143.898781000000  9.350000000000  1  # C
 53.320000000000  145.330609666700  9.350000000000  1  # C
 52.080000000000  146.046524000000  9.350000000000  1  # C
 52.080000000000  147.478352666700  9.350000000000  1  # C
 50.840000000000  148.194267000000  9.350000000000  1  # C
 50.840000000000  149.626095666700  9.350000000000  1  # C
 49.600000000000  150.342010000000  9.350000000000  1  # C
 49.600000000000  151.773838666700  9.350000000000  1  # C
 48.360000000000  152.489753000000  9.350000000000  1  # C
 48.360000000000  153.921581666700  9.350000000000  1  # C
 47.120000000000  154.637496000000  9.350000000000  1  # C
 47.120000000000  156.069324666700  9.350000000000  1  # C
 45.880000000000  156.785239000000  9.350000000000  1  # C
 45.880000000000  158.217067666700  9.350000000000  1  # C
 104.160000000000  61.568632666700  9.350000000000  1  # C
 102.920000000000  62.284547000000  9.350000000000  1  # C
 102.920000000000  63.716375666700  9.350000000000  1  # C
 101.680000000000  64.432290000000  9.350000000000  1  # C
 101.680000000000  65.864118666700  9.350000000000  1  # C
 100.440000000000  66.580033000000  9.350000000000  1  # C
 100.440000000000  68.011861666700  9.350000000000  1  # C
 99.200000000000  68.727776000000  9.350000000000  1  # C
 99.200000000000  70.159604666700  9.350000000000  1  # C
 97.960000000000  70.875519000000  9.350000000000  1  # C
 97.960000000000  72.307347666700  9.350000000000  1  # C
 96.720000000000  73.023262000000  9.350000000000  1  # C
 96.720000000000  74.455090666700  9.350000000000  1  # C
 95.480000000000  75.171005000000  9.350000000000  1  # C
 95.480000000000  76.602833666700  9.350000000000  1  # C
 94.240000000000  77.318748000000  9.350000000000  1  # C
 94.240000000000  78.750576666700  9.350000000000  1  # C
 93.000000000000  79.466491000000  9.350000000000  1  # C
 93.000000000000  80.898319666700  9.350000000000  1  # C
 91.760000000000  81.614234000000  9.350000000000  1  # C
 91.760000000000  83.046062666700  9.350000000000  1  # C
 90.520000000000  83.761977000000  9.350000000000  1  # C
 90.520000000000  85.193805666700  9.350000000000  1  # C
 89.280000000000  85.909720000000  9.350000000000  1  # C
 89.280000000000  87.341548666700  9.350000000000  1  # C
 88.040000000000  88.057463000000  9.350000000000  1  # C
 88.040000000000  89.489291666700  9.350000000000  1  # C
 86.800000000000  90.205206000000  9.350000000000  1  # C
 86.800000000000  91.637034666700  9.350000000000  1  # C
 85.560000000000  92.352949000000  9.350000000000  1  # C
 85.560000000000  93.784777666700  9.350000000000  1  # C
 84.320000000000  94.500692000000  9.350000000000  1  # C
 84.320000000000  95.932520666700  9.350000000000  1  # C
 83.080000000000  96.648435000000  9.350000000000  1  # C
 83.080000000000  98.080263666700  9.350000000000  1  # C
 81.840000000000  98.796178000000  9.350000000000  1  # C
 81.840000000000  100.228006666700  9.350000000000  1  # C
 80.600000000000  100.943921000000  9.350000000000  1  # C
 80.600000000000  102.375749666700  9.350000000000  1  # C
 79.360000000000  103.091664000000  9.350000000000  1  # C
 79.360000000000  104.523492666700  9.350000000000  1  # C
 78.120000000000  105.239407000000  9.350000000000  1  # C
 78.120000000000  106.671235666700  9.350000000000  1  # C
 76.880000000000  107.387150000000  9.350000000000  1  # C
 76.880000000000  108.818978666700  9.350000000000  1  # C
 75.640000000000  109.534893000000  9.350000000000  1  # C
 75.640000000000  110.966721666700  9.350000000000  1  # C
 74.400000000000  111.682636000000  9.350000000000  1  # C
 74.400000000000  113.114464666700  9.350000000000  1  # C
 73.160000000000  113.830379000000  9.350000000000  1  # C
 73.160000000000  115.262207666700  9.350000000000  1  # C
 71.920000000000  115.978122000000  9.350000000000  1  # C
 71.920000000000  117.409950666700  9.350000000000  1  # C
 70.680000000000  118.125865000000  9.350000000000  1  # C
 70.680000000000  119.557693666700  9.350000000000  1  # C
 69.440000000000  120.273608000000  9.350000000000  1  # C
 69.440000000000  121.705436666700  9.350000000000  1  # C
 68.200000000000  122.421351000000  9.350000000000  1  # C
 68.200000000000  123.853179666700  9.350000000000  1  # C
 66.960000000000  124.569094000000  9.350000000000  1  # C
 66.960000000000  126.000922666700  9.350000000000  1  # C
 65.720000000000  126.716837000000  9.350000000000  1  # C
 65.720000000000  128.148665666700  9.350000000000  1  # C
 64.480000000000  128.864580000000  9.350000000000  1  # C
 64.480000000000  130.296408666700  9.350000000000  1  # C
 63.240000000000  131.012323000000  9.350000000000  1  # C
 63.240000000000  132.444151666700  9.350000000000  1  # C
 62.000000000000  133.160066000000  9.350000000000  1  # C
 62.000000000000  134.591894666700  9.350000000000  1  # C
 60.760000000000  135.307809000000  9.350000000000  1  # C
 60.760000000000  136.739637666700  9.350000000000  1  # C
 59.520000000000  137.455552000000  9.350000000000  1  # C
 59.520000000000  138.887380666700  9.350000000000  1  # C
 58.280000000000  139.603295000000  9.350000000000  1  # C
 58.280000000000  141.035123666700  9.350000000000  1  # C
 57.040000000000  141.751038000000  9.350000000000  1  # C
 57.040000000000  143.182866666700  9.350000000000  1  # C
 55.800000000000  143.898781000000  9.350000000000  1  # C
 55.800000000000  145.330609666700  9.350000000000  1  # C
 54.560000000000  146.046524000000  9.350000000000  1  # C
 54.560000000000  147.478352666700  9.350000000000  1  # C
 53.320000000000  148.194267000000  9.350000000000  1  # C
 53.320000000000  149.626095666700  9.350000000000  1  # C
 52.080000000000  150.342010000000  9.350000000000  1  # C
 52.080000000000  151.773838666700  9.350000000000  1  # C
 50.840000000000  152.489753000000  9.350000000000  1  # C
 50.840000000000  153.921581666700  9.350000000000  1  # C
 49.600000000000  154.637496000000  9.350000000000  1  # C
 49.600000000000  156.069324666700  9.350000000000  1  # C
 48.360000000000  156.785239000000  9.350000000000  1  # C
 48.360000000000  158.217067666700  9.350000000000  1  # C
 47.120000000000  158.932982000000  9.350000000000  1  # C
 105.400000000000  62.284547000000  9.350000000000  1  # C
 105.400000000000  63.716375666700  9.350000000000  1  # C
 104.160000000000  64.432290000000  9.350000000000  1  # C
 104.160000000000  65.864118666700  9.350000000000  1  # C
 102.920000000000  66.580033000000  9.350000000000  1  # C
 102.920000000000  68.011861666700  9.350000000000  1  # C
 101.680000000000  68.727776000000  9.350000000000  1  # C
 101.680000000000  70.159604666700  9.350000000000  1  # C
 100.440000000000  70.875519000000  9.350000000000  1  # C
 100.440000000000  72.307347666700  9.350000000000  1  # C
 99.200000000000  73.023262000000  9.350000000000  1  # C
 99.200000000000  74.455090666700  9.350000000000  1  # C
 97.960000000000  75.171005000000  9.350000000000  1  # C
 97.960000000000  76.602833666700  9.350000000000  1  # C
 96.720000000000  77.318748000000  9.350000000000  1  # C
 96.720000000000  78.750576666700  9.350000000000  1  # C
 95.480000000000  79.466491000000  9.350000000000  1  # C
 95.480000000000  80.898319666700  9.350000000000  1  # C
 94.240000000000  81.614234000000  9.350000000000  1  # C
 94.240000000000  83.046062666700  9.350000000000  1  # C
 93.000000000000  83.761977000000  9.350000000000  1  # C
 93.000000000000  85.193805666700  9.350000000000  1  # C
 91.760000000000  85.909720000000  9.350000000000  1  # C
 91.760000000000  87.341548666700  9.350000000000  1  # C
 90.520000000000  88.057463000000  9.350000000000  1  # C
 90.520000000000  89.489291666700  9.350000000000  1  # C
 89.280000000000  90.205206000000  9.350000000000  1  # C
 89.280000000000  91.637034666700  9.350000000000  1  # C
 88.040000000000  92.352949000000  9.350000000000  1  # C
 88.040000000000  93.784777666700  9.350000000000  1  # C
 86.800000000000  94.500692000000  9.350000000000  1  # C
 86.800000000000  95.932520666700  9.350000000000  1  # C
 85.560000000000  96.648435000000  9.350000000000  1  # C
 85.560000000000  98.080263666700  9.350000000000  1  # C
 84.320000000000  98.796178000000  9.350000000000  1  # C
 84.320000000000  100.228006666700  9.350000000000  1  # C
 83.080000000000  100.943921000000  9.350000000000  1  # C
 83.080000000000  102.375749666700  9.350000000000  1  # C
 81.840000000000  103.091664000000  9.350000000000  1  # C
 81.840000000000  104.523492666700  9.350000000000  1  # C
 80.600000000000  105.239407000000  9.350000000000  1  # C
 80.600000000000  106.671235666700  9.350000000000  1  # C
 79.360000000000  107.387150000000  9.350000000000  1  # C
 79.360000000000  108.818978666700  9.350000000000  1  # C
 78.120000000000  109.534893000000  9.350000000000  1  # C
 78.120000000000  110.966721666700  9.350000000000  1  # C
 76.880000000000  111.682636000000  9.350000000000  1  # C
 76.880000000000  113.114464666700  9.350000000000  1  # C
 75.640000000000  113.830379000000  9.350000000000  1  # C
 75.640000000000  115.262207666700  9.350000000000  1  # C
 74.400000000000  115.978122000000  9.350000000000  1  # C
 74.400000000000  117.409950666700  9.350000000000  1  # C
 73.160000000000  118.125865000000  9.350000000000  1  # C
 73.160000000000  119.557693666700  9.350000000000  1  # C
 71.920000000000  120.273608000000  9.350000000000  1  # C
 71.920000000000  121.705436666700  9.350000000000  1  # C
 70.680000000000  122.421351000000  9.350000000000  1  # C
 70.680000000000  123.853179666700  9.350000000000  1  # C
 69.440000000000  124.569094000000  9.350000000000  1  # C
 69.440000000000  126.000922666700  9.350000000000  1  # C
 68.200000000000  126.716837000000  9.350000000000  1  # C
 68.200000000000  128.148665666700  9.350000000000  1  # C
 66.960000000000  128.864580000000  9.350000000000  1  # C
 66.960000000000  130.296408666700  9.350000000000  1  # C
 65.720000000000  131.012323000000  9.350000000000  1  # C
 65.720000000000  132.444151666700  9.350000000000  1  # C
 64.480000000000  133.160066000000  9.350000000000  1  # C
 64.480000000000  134.591894666700  9.350000000000  1  # C
 63.240000000000  135.307809000000  9.350000000000  1  # C
 63.240000000000  136.739637666700  9.350000000000  1  # C
 62.000000000000  137.455552000000  9.350000000000  1  # C
 62.000000000000  138.887380666700  9.350000000000  1  # C
 60.760000000000  139.603295000000  9.350000000000  1  # C
 60.760000000000  141.035123666700  9.350000000000  1  # C
 59.520000000000  141.751038000000  9.350000000000  1  # C
 59.520000000000  143.182866666700  9.350000000000  1  # C
 58.280000000000  143.898781000000  9.350000000000  1  # C
 58.280000000000  145.330609666700  9.350000000000  1  # C
 57.040000000000  146.046524000000  9.350000000000  1  # C
 57.040000000000  147.478352666700  9.350000000000  1  # C
 55.800000000000  148.194267000000  9.350000000000  1  # C
 55.800000000000  149.626095666700  9.350000000000  1  # C
 54.560000000000  150.342010000000  9.350000000000  1  # C
 54.560000000000  151.773838666700  9.350000000000  1  # C
 53.320000000000  152.489753000000  9.350000000000  1  # C
 53.320000000000  153.921581666700  9.350000000000  1  # C
 52.080000000000  154.637496000000  9.350000000000  1  # C
 52.080000000000  156.069324666700  9.350000000000  1  # C
 50.840000000000  156.785239000000  9.350000000000  1  # C
 50.840000000000  158.217067666700  9.350000000000  1  # C
 49.600000000000  158.932982000000  9.350000000000  1  # C
 49.600000000000  160.364810666700  9.350000000000  1  # C
 107.880000000000  63.716375666700  9.350000000000  1  # C
 106.640000000000  64.432290000000  9.350000000000  1  # C
 106.640000000000  65.864118666700  9.350000000000  1  # C
 105.400000000000  66.580033000000  9.350000000000  1  # C
 105.400000000000  68.011861666700  9.350000000000  1  # C
 104.160000000000  68.727776000000  9.350000000000  1  # C
 104.160000000000  70.159604666700  9.350000000000  1  # C
 102.920000000000  70.875519000000  9.350000000000  1  # C
 102.920000000000  72.307347666700  9.350000000000  1  # C
 101.680000000000  73.023262000000  9.350000000000  1  # C
 101.680000000000  74.455090666700  9.350000000000  1  # C
 100.440000000000  75.171005000000  9.350000000000  1  # C
 100.440000000000  76.602833666700  9.350000000000  1  # C
 99.200000000000  77.318748000000  9.350000000000  1  # C
 99.200000000000  78.750576666700  9.350000000000  1  # C
 97.960000000000  79.466491000000  9.350000000000  1  # C
 97.960000000000  80.898319666700  9.350000000000  1  # C
 96.720000000000  81.614234000000  9.350000000000  1  # C
 96.720000000000  83.046062666700  9.350000000000  1  # C
 95.480000000000  83.761977000000  9.350000000000  1  # C
 95.480000000000  85.193805666700  9.350000000000  1  # C
 94.240000000000  85.909720000000  9.350000000000  1  # C
 94.240000000000  87.341548666700  9.350000000000  1  # C
 93.000000000000  88.057463000000  9.350000000000  1  # C
 93.000000000000  89.489291666700  9.350000000000  1  # C
 91.760000000000  90.205206000000  9.350000000000  1  # C
 91.760000000000  91.637034666700  9.350000000000  1  # C
 90.520000000000  92.352949000000  9.350000000000  1  # C
 90.520000000000  93.784777666700  9.350000000000  1  # C
 89.280000000000  94.500692000000  9.350000000000  1  # C
 89.280000000000  95.932520666700  9.350000000000  1  # C
 88.040000000000  96.648435000000  9.350000000000  1  # C
 88.040000000000  98.080263666700  9.350000000000  1  # C
 86.800000000000  98.796178000000  9.350000000000  1  # C
 86.800000000000  100.228006666700  9.350000000000  1  # C
 85.560000000000  100.943921000000  9.350000000000  1  # C
 85.560000000000  102.375749666700  9.350000000000  1  # C
 84.320000000000  103.091664000000  9.350000000000  1  # C
 84.320000000000  104.523492666700  9.350000000000  1  # C
 83.080000000000  105.239407000000  9.350000000000  1  # C
 83.080000000000  106.671235666700  9.350000000000  1  # C
 81.840000000000  107.387150000000  9.350000000000  1  # C
 81.840000000000  108.818978666700  9.350000000000  1  # C
 80.600000000000  109.534893000000  9.350000000000  1  # C
 80.600000000000  110.966721666700  9.350000000000  1  # C
 79.360000000000  111.682636000000  9.350000000000  1  # C
 79.360000000000  113.114464666700  9.350000000000  1  # C
 78.120000000000  113.830379000000  9.350000000000  1  # C
 78.120000000000  115.262207666700  9.350000000000  1  # C
 76.880000000000  115.978122000000  9.350000000000  1  # C
 76.880000000000  117.409950666700  9.350000000000  1  # C
 75.640000000000  118.125865000000  9.350000000000  1  # C
 75.640000000000  119.557693666700  9.350000000000  1  # C
 74.400000000000  120.273608000000  9.350000000000  1  # C
 74.400000000000  121.705436666700  9.350000000000  1  # C
 73.160000000000  122.421351000000  9.350000000000  1  # C
 73.160000000000  123.853179666700  9.350000000000  1  # C
 71.920000000000  124.569094000000  9.350000000000  1  # C
 71.920000000000  126.000922666700  9.350000000000  1  # C
 70.680000000000  126.716837000000  9.350000000000  1  # C
 70.680000000000  128.148665666700  9.350000000000  1  # C
 69.440000000000  128.864580000000  9.350000000000  1  # C
 69.440000000000  130.296408666700  9.350000000000  1  # C
 68.200000000000  131.012323000000  9.350000000000  1  # C
 68.200000000000  132.444151666700  9.350000000000  1  # C
 66.960000000000  133.160066000000  9.350000000000  1  # C
 66.960000000000  134.591894666700  9.350000000000  1  # C
 65.720000000000  135.307809000000  9.350000000000  1  # C
 65.720000000000  136.739637666700  9.350000000000  1  # C
 64.480000000000  137.455552000000  9.350000000000  1  # C
 64.480000000000  138.887380666700  9.350000000000  1  # C
 63.240000000000  139.603295000000  9.350000000000  1  # C
 63.240000000000  141.035123666700  9.350000000000  1  # C
 62.000000000000  141.751038000000  9.350000000000  1  # C
 62.000000000000  143.182866666700  9.350000000000  1  # C
 60.760000000000  143.898781000000  9.350000000000  1  # C
 60.760000000000  145.330609666700  9.350000000000  1  # C
 59.520000000000  146.046524000000  9.350000000000  1  # C
 59.520000000000  147.478352666700  9.350000000000  1  # C
 58.280000000000  148.194267000000  9.350000000000  1  # C
 58.280000000000  149.626095666700  9.350000000000  1  # C
 57.040000000000  150.342010000000  9.350000000000  1  # C
 57.040000000000  151.773838666700  9.350000000000  1  # C
 55.800000000000  152.489753000000  9.350000000000  1  # C
 55.800000000000  153.921581666700  9.350000000000  1  # C
 54.560000000000  154.637496000000  9.350000000000  1  # C
 54.560000000000  156.069324666700  9.350000000000  1  # C
 53.320000000000  156.785239000000  9.350000000000  1  # C
 53.320000000000  158.217067666700  9.350000000000  1  # C
 52.080000000000  158.932982000000  9.350000000000  1  # C
 52.080000000000  160.364810666700  9.350000000000  1  # C
 50.840000000000  161.080725000000  9.350000000000  1  # C
 109.120000000000  64.432290000000  9.350000000000  1  # C
 109.120000000000  65.864118666700  9.350000000000  1  # C
 107.880000000000  66.580033000000  9.350000000000  1  # C
 107.880000000000  68.011861666700  9.350000000000  1  # C
 106.640000000000  68.727776000000  9.350000000000  1  # C
 106.640000000000  70.159604666700  9.350000000000  1  # C
 105.400000000000  70.875519000000  9.350000000000  1  # C
 105.400000000000  72.307347666700  9.350000000000  1  # C
 104.160000000000  73.023262000000  9.350000000000  1  # C
 104.160000000000  74.455090666700  9.350000000000  1  # C
 102.920000000000  75.171005000000  9.350000000000  1  # C
 102.920000000000  76.602833666700  9.350000000000  1  # C
 101.680000000000  77.318748000000  9.350000000000  1  # C
 101.680000000000  78.750576666700  9.350000000000  1  # C
 100.440000000000  79.466491000000  9.350000000000  1  # C
 100.440000000000  80.898319666700  9.350000000000  1  # C
 99.200000000000  81.614234000000  9.350000000000  1  # C
 99.200000000000  83.046062666700  9.350000000000  1  # C
 97.960000000000  83.761977000000  9.350000000000  1  # C
 97.960000000000  85.193805666700  9.350000000000  1  # C
 96.720000000000  85.909720000000  9.350000000000  1  # C
 96.720000000000  87.341548666700  9.350000000000  1  # C
 95.480000000000  88.057463000000  9.350000000000  1  # C
 95.480000000000  89.489291666700  9.350000000000  1  # C
 94.240000000000  90.205206000000  9.350000000000  1  # C
 94.240000000000  91.637034666700  9.350000000000  1  # C
 93.000000000000  92.352949000000  9.350000000000  1  # C
 93.000000000000  93.784777666700  9.350000000000  1  # C
 91.760000000000  94.500692000000  9.350000000000  1  # C
 91.760000000000  95.932520666700  9.350000000000  1  # C
 90.520000000000  96.648435000000  9.350000000000  1  # C
 90.520000000000  98.080263666700  9.350000000000  1  # C
 89.280000000000  98.796178000000  9.350000000000  1  # C
 89.280000000000  100.228006666700  9.350000000000  1  # C
 88.040000000000  100.943921000000  9.350000000000  1  # C
 88.040000000000  102.375749666700  9.350000000000  1  # C
 86.800000000000  103.091664000000  9.350000000000  1  # C
 86.800000000000  104.523492666700  9.350000000000  1  # C
 85.560000000000  105.239407000000  9.350000000000  1  # C
 85.560000000000  106.671235666700  9.350000000000  1  # C
 84.320000000000  107.387150000000  9.350000000000  1  # C
 84.320000000000  108.818978666700  9.350000000000  1  # C
 83.080000000000  109.534893000000  9.350000000000  1  # C
 83.080000000000  110.966721666700  9.350000000000  1  # C
 81.840000000000  111.682636000000  9.350000000000  1  # C
 81.840000000000  113.114464666700  9.350000000000  1  # C
 80.600000000000  113.830379000000  9.350000000000  1  # C
 80.600000000000  115.262207666700  9.350000000000  1  # C
 79.360000000000  115.978122000000  9.350000000000  1  # C
 79.360000000000  117.409950666700  9.350000000000  1  # C
 78.120000000000  118.125865000000  9.350000000000  1  # C
 78.120000000000  119.557693666700  9.350000000000  1  # C
 76.880000000000  120.273608000000  9.350000000000  1  # C
 76.880000000000  121.705436666700  9.350000000000  1  # C
 75.640000000000  122.421351000000  9.350000000000  1  # C
 75.640000000000  123.853179666700  9.350000000000  1  # C
 74.400000000000  124.569094000000  9.350000000000  1  # C
 74.400000000000  126.000922666700  9.350000000000  1  # C
 73.160000000000  126.716837000000  9.350000000000  1  # C
 73.160000000000  128.148665666700  9.350000000000  1  # C
 71.920000000000  128.864580000000  9.350000000000  1  # C
 71.920000000000  130.296408666700  9.350000000000  1  # C
 70.680000000000  131.012323000000  9.350000000000  1  # C
 70.680000000000  132.444151666700  9.350000000000  1  # C
 69.440000000000  133.160066000000  9.350000000000  1  # C
 69.440000000000  134.591894666700  9.350000000000  1  # C
 68.200000000000  135.307809000000  9.350000000000  1  # C
 68.200000000000  136.739637666700  9.350000000000  1  # C
 66.960000000000  137.455552000000  9.350000000000  1  # C
 66.960000000000  138.887380666700  9.350000000000  1  # C
 65.720000000000  139.603295000000  9.350000000000  1  # C
 65.720000000000  141.035123666700  9.350000000000  1  # C
 64.480000000000  141.751038000000  9.350000000000  1  # C
 64.480000000000  143.182866666700  9.350000000000  1  # C
 63.240000000000  143.898781000000  9.350000000000  1  # C
 63.240000000000  145.330609666700  9.350000000000  1  # C
 62.000000000000  146.046524000000  9.350000000000  1  # C
 62.000000000000  147.478352666700  9.350000000000  1  # C
 60.760000000000  148.194267000000  9.350000000000  1  # C
 60.760000000000  149.626095666700  9.350000000000  1  # C
 59.520000000000  150.342010000000  9.350000000000  1  # C
 59.520000000000  151.773838666700  9.350000000000  1  # C
 58.280000000000  152.489753000000  9.350000000000  1  # C
 58.280000000000  153.921581666700  9.350000000000  1  # C
 57.040000000000  154.637496000000  9.350000000000  1  # C
 57.040000000000  156.069324666700  9.350000000000  1  # C
 55.800000000000  156.785239000000  9.350000000000  1  # C
 55.800000000000  158.217067666700  9.350000000000  1  # C
 54.560000000000  158.932982000000  9.350000000000  1  # C
 54.560000000000  160.364810666700  9.350000000000  1  # C
 53.320000000000  161.080725000000  9.350000000000  1  # C
 53.320000000000  162.512553666700  9.350000000000  1  # C
 111.600000000000  65.864118666700  9.350000000000  1  # C
 110.360000000000  66.580033000000  9.350000000000  1  # C
 110.360000000000  68.011861666700  9.350000000000  1  # C
 109.120000000000  68.727776000000  9.350000000000  1  # C
 109.120000000000  70.159604666700  9.350000000000  1  # C
 107.880000000000  70.875519000000  9.350000000000  1  # C
 107.880000000000  72.307347666700  9.350000000000  1  # C
 106.640000000000  73.023262000000  9.350000000000  1  # C
 106.640000000000  74.455090666700  9.350000000000  1  # C
 105.400000000000  75.171005000000  9.350000000000  1  # C
 105.400000000000  76.602833666700  9.350000000000  1  # C
 104.160000000000  77.318748000000  9.350000000000  1  # C
 104.160000000000  78.750576666700  9.350000000000  1  # C
 102.920000000000  79.466491000000  9.350000000000  1  # C
 102.920000000000  80.898319666700  9.350000000000  1  # C
 101.680000000000  81.614234000000  9.350000000000  1  # C
 101.680000000000  83.046062666700  9.350000000000  1  # C
 100.440000000000  83.761977000000  9.350000000000  1  # C
 100.440000000000  85.193805666700  9.350000000000  1  # C
 99.200000000000  85.909720000000  9.350000000000  1  # C
 99.200000000000  87.341548666700  9.350000000000  1  # C
 97.960000000000  88.057463000000  9.350000000000  1  # C
 97.960000000000  89.489291666700  9.350000000000  1  # C
 96.720000000000  90.205206000000  9.350000000000  1  # C
 96.720000000000  91.637034666700  9.350000000000  1  # C
 95.480000000000  92.352949000000  9.350000000000  1  # C
 95.480000000000  93.784777666700  9.350000000000  1  # C
 94.240000000000  94.500692000000  9.350000000000  1  # C
 94.240000000000  95.932520666700  9.350000000000  1  # C
 93.000000000000  96.648435000000  9.350000000000  1  # C
 93.000000000000  98.080263666700  9.350000000000  1  # C
 91.760000000000  98.796178000000  9.350000000000  1  # C
 91.760000000000  100.228006666700  9.350000000000  1  # C
 90.520000000000  100.943921000000  9.350000000000  1  # C
 90.520000000000  102.375749666700  9.350000000000  1  # C
 89.280000000000  103.091664000000  9.350000000000  1  # C
 89.280000000000  104.523492666700  9.350000000000  1  # C
 88.040000000000  105.239407000000  9.350000000000  1  # C
 88.040000000000  106.671235666700  9.350000000000  1  # C
 86.800000000000  107.387150000000  9.350000000000  1  # C
 86.800000000000  108.818978666700  9.350000000000  1  # C
 85.560000000000  109.534893000000  9.350000000000  1  # C
 85.560000000000  110.966721666700  9.350000000000  1  # C
 84.320000000000  111.682636000000  9.350000000000  1  # C
 84.320000000000  113.114464666700  9.350000000000  1  # C
 83.080000000000  113.830379000000  9.350000000000  1  # C
 83.080000000000  115.262207666700  9.350000000000  1  # C
 81.840000000000  115.978122000000  9.350000000000  1  # C
 81.840000000000  117.409950666700  9.350000000000  1  # C
 80.600000000000  118.125865000000  9.350000000000  1  # C
 80.600000000000  119.557693666700  9.350000000000  1  # C
 79.360000000000  120.273608000000  9.350000000000  1  # C
 79.360000000000  121.705436666700  9.350000000000  1  # C
 78.120000000000  122.421351000000  9.350000000000  1  # C
 78.120000000000  123.853179666700  9.350000000000  1  # C
 76.880000000000  124.569094000000  9.350000000000  1  # C
 76.880000000000  126.000922666700  9.350000000000  1  # C
 75.640000000000  126.716837000000  9.350000000000  1  # C
 75.640000000000  128.148665666700  9.350000000000  1  # C
 74.400000000000  128.864580000000  9.350000000000  1  # C
 74.400000000000  130.296408666700  9.350000000000  1  # C
 73.160000000000  131.012323000000  9.350000000000  1  # C
 73.160000000000  132.444151666700  9.350000000000  1  # C
 71.920000000000  133.160066000000  9.350000000000  1  # C
 71.920000000000  134.591894666700  9.350000000000  1  # C
 70.680000000000  135.307809000000  9.350000000000  1  # C
 70.680000000000  136.739637666700  9.350000000000  1  # C
 69.440000000000  137.455552000000  9.350000000000  1  # C
 69.440000000000  138.887380666700  9.350000000000  1  # C
 68.200000000000  139.603295000000  9.350000000000  1  # C
 68.200000000000  141.035123666700  9.350000000000  1  # C
 66.960000000000  141.751038000000  9.350000000000  1  # C
 66.960000000000  143.182866666700  9.350000000000  1  # C
 65.720000000000  143.898781000000  9.350000000000  1  # C
 65.720000000000  145.330609666700  9.350000000000  1  # C
 64.480000000000  146.046524000000  9.350000000000  1  # C
 64.480000000000  147.478352666700  9.350000000000  1  # C
 63.240000000000  148.194267000000  9.350000000000  1  # C
 63.240000000000  149.626095666700  9.350000000000  1  # C
 62.000000000000  150.342010000000  9.350000000000  1  # C
 62.000000000000  151.773838666700  9.350000000000  1  # C
 60.760000000000  152.489753000000  9.350000000000  1  # C
 60.760000000000  153.921581666700  9.350000000000  1  # C
 59.520000000000  154.637496000000  9.350000000000  1  # C
 59.520000000000  156.069324666700  9.350000000000  1  # C
 58.280000000000  156.785239000000  9.350000000000  1  # C
 58.280000000000  158.217067666700  9.350000000000  1  # C
 57.040000000000  158.932982000000  9.350000000000  1  # C
 57.040000000000  160.364810666700  9.350000000000  1  # C
 55.800000000000  161.080725000000  9.350000000000  1  # C
 55.800000000000  162.512553666700  9.350000000000  1  # C
 54.560000000000  163.228468000000  9.350000000000  1  # C
 111.600000000000  68.727776000000  9.350000000000  1  # C
 111.600000000000  70.159604666700  9.350000000000  1  # C
 110.360000000000  70.875519000000  9.350000000000  1  # C
 110.360000000000  72.307347666700  9.350000000000  1  # C
 109.120000000000  73.023262000000  9.350000000000  1  # C
 109.120000000000  74.455090666700  9.350000000000  1  # C
 107.880000000000  75.171005000000  9.350000000000  1  # C
 107.880000000000  76.602833666700  9.350000000000  1  # C
 106.640000000000  77.318748000000  9.350000000000  1  # C
 106.640000000000  78.750576666700  9.350000000000  1  # C
 105.400000000000  79.466491000000  9.350000000000  1  # C
 105.400000000000  80.898319666700  9.350000000000  1  # C
 104.160000000000  81.614234000000  9.350000000000  1  # C
 104.160000000000  83.046062666700  9.350000000000  1  # C
 102.920000000000  83.761977000000  9.350000000000  1  # C
 102.920000000000  85.193805666700  9.350000000000  1  # C
 101.680000000000  85.909720000000  9.350000000000  1  # C
 101.680000000000  87.341548666700  9.350000000000  1  # C
 100.440000000000  88.057463000000  9.350000000000  1  # C
 100.440000000000  89.489291666700  9.350000000000  1  # C
 99.200000000000  90.205206000000  9.350000000000  1  # C
 99.200000000000  91.637034666700  9.350000000000  1  # C
 97.960000000000  92.352949000000  9.350000000000  1  # C
 97.960000000000  93.784777666700  9.350000000000  1  # C
 96.720000000000  94.500692000000  9.350000000000  1  # C
 96.720000000000  95.932520666700  9.350000000000  1  # C
 95.480000000000  96.648435000000  9.350000000000  1  # C
 95.480000000000  98.080263666700  9.350000000000  1  # C
 94.240000000000  98.796178000000  9.350000000000  1  # C
 94.240000000000  100.228006666700  9.350000000000  1  # C
 93.000000000000  100.943921000000  9.350000000000  1  # C
 93.000000000000  102.375749666700  9.350000000000  1  # C
 91.760000000000  103.091664000000  9.350000000000  1  # C
 91.760000000000  104.523492666700  9.350000000000  1  # C
 90.520000000000  105.239407000000  9.350000000000  1  # C
 90.520000000000  106.671235666700  9.350000000000  1  # C
 89.280000000000  107.387150000000  9.350000000000  1  # C
 89.280000000000  108.818978666700  9.350000000000  1  # C
 88.040000000000  109.534893000000  9.350000000000  1  # C
 88.040000000000  110.966721666700  9.350000000000  1  # C
 86.800000000000  111.682636000000  9.350000000000  1  # C
 86.800000000000  113.114464666700  9.350000000000  1  # C
 85.560000000000  113.830379000000  9.350000000000  1  # C
 85.560000000000  115.262207666700  9.350000000000  1  # C
 84.320000000000  115.978122000000  9.350000000000  1  # C
 84.320000000000  117.409950666700  9.350000000000  1  # C
 83.080000000000  118.125865000000  9.350000000000  1  # C
 83.080000000000  119.557693666700  9.350000000000  1  # C
 81.840000000000  120.273608000000  9.350000000000  1  # C
 81.840000000000  121.705436666700  9.350000000000  1  # C
 80.600000000000  122.421351000000  9.350000000000  1  # C
 80.600000000000  123.853179666700  9.350000000000  1  # C
 79.360000000000  124.569094000000  9.350000000000  1  # C
 79.360000000000  126.000922666700  9.350000000000  1  # C
 78.120000000000  126.716837000000  9.350000000000  1  # C
 78.120000000000  128.148665666700  9.350000000000  1  # C
 76.880000000000  128.864580000000  9.350000000000  1  # C
 76.880000000000  130.296408666700  9.350000000000  1  # C
 75.640000000000  131.012323000000  9.350000000000  1  # C
 75.640000000000  132.444151666700  9.350000000000  1  # C
 74.400000000000  133.160066000000  9.350000000000  1  # C
 74.400000000000  134.591894666700  9.350000000000  1  # C
 73.160000000000  135.307809000000  9.350000000000  1  # C
 73.160000000000  136.739637666700  9.350000000000  1  # C
 71.920000000000  137.455552000000  9.350000000000  1  # C
 71.920000000000  138.887380666700  9.350000000000  1  # C
 70.680000000000  139.603295000000  9.350000000000  1  # C
 70.680000000000  141.035123666700  9.350000000000  1  # C
 69.440000000000  141.751038000000  9.350000000000  1  # C
 69.440000000000  143.182866666700  9.350000000000  1  # C
 68.200000000000  143.898781000000  9.350000000000  1  # C
 68.200000000000  145.330609666700  9.350000000000  1  # C
 66.960000000000  146.046524000000  9.350000000000  1  # C
 66.960000000000  147.478352666700  9.350000000000  1  # C
 65.720000000000  148.194267000000  9.350000000000  1  # C
 65.720000000000  149.626095666700  9.350000000000  1  # C
 64.480000000000  150.342010000000  9.350000000000  1  # C
 64.480000000000  151.773838666700  9.350000000000  1  # C
 63.240000000000  152.489753000000  9.350000000000  1  # C
 63.240000000000  153.921581666700  9.350000000000  1  # C
 62.000000000000  154.637496000000  9.350000000000  1  # C
 62.000000000000  156.069324666700  9.350000000000  1  # C
 60.760000000000  156.785239000000  9.350000000000  1  # C
 60.760000000000  158.217067666700  9.350000000000  1  # C
 59.520000000000  158.932982000000  9.350000000000  1  # C
 59.520000000000  160.364810666700  9.350000000000  1  # C
 58.280000000000  161.080725000000  9.350000000000  1  # C
 58.280000000000  162.512553666700  9.350000000000  1  # C
 57.040000000000  163.228468000000  9.350000000000  1  # C
 57.040000000000  164.660296666700  9.350000000000  1  # C
 111.600000000000  73.023262000000  9.350000000000  1  # C
 111.600000000000  74.455090666700  9.350000000000  1  # C
 110.360000000000  75.171005000000  9.350000000000  1  # C
 110.360000000000  76.602833666700  9.350000000000  1  # C
 109.120000000000  77.318748000000  9.350000000000  1  # C
 109.120000000000  78.750576666700  9.350000000000  1  # C
 107.880000000000  79.466491000000  9.350000000000  1  # C
 107.880000000000  80.898319666700  9.350000000000  1  # C
 106.640000000000  81.614234000000  9.350000000000  1  # C
 106.640000000000  83.046062666700  9.350000000000  1  # C
 105.400000000000  83.761977000000  9.350000000000  1  # C
 105.400000000000  85.193805666700  9.350000000000  1  # C
 104.160000000000  85.909720000000  9.350000000000  1  # C
 104.160000000000  87.341548666700  9.350000000000  1  # C
 102.920000000000  88.057463000000  9.350000000000  1  # C
 102.920000000000  89.489291666700  9.350000000000  1  # C
 101.680000000000  90.205206000000  9.350000000000  1  # C
 101.680000000000  91.637034666700  9.350000000000  1  # C
 100.440000000000  92.352949000000  9.350000000000  1  # C
 100.440000000000  93.784777666700  9.350000000000  1  # C
 99.200000000000  94.500692000000  9.350000000000  1  # C
 99.200000000000  95.932520666700  9.350000000000  1  # C
 97.960000000000  96.648435000000  9.350000000000  1  # C
 97.960000000000  98.080263666700  9.350000000000  1  # C
 96.720000000000  98.796178000000  9.350000000000  1  # C
 96.720000000000  100.228006666700  9.350000000000  1  # C
 95.480000000000  100.943921000000  9.350000000000  1  # C
 95.480000000000  102.375749666700  9.350000000000  1  # C
 94.240000000000  103.091664000000  9.350000000000  1  # C
 94.240000000000  104.523492666700  9.350000000000  1  # C
 93.000000000000  105.239407000000  9.350000000000  1  # C
 93.000000000000  106.671235666700  9.350000000000  1  # C
 91.760000000000  107.387150000000  9.350000000000  1  # C
 91.760000000000  108.818978666700  9.350000000000  1  # C
 90.520000000000  109.534893000000  9.350000000000  1  # C
 90.520000000000  110.966721666700  9.350000000000  1  # C
 89.280000000000  111.682636000000  9.350000000000  1  # C
 89.280000000000  113.114464666700  9.350000000000  1  # C
 88.040000000000  113.830379000000  9.350000000000  1  # C
 88.040000000000  115.262207666700  9.350000000000  1  # C
 86.800000000000  115.978122000000  9.350000000000  1  # C
 86.800000000000  117.409950666700  9.350000000000  1  # C
 85.560000000000  118.125865000000  9.350000000000  1  # C
 85.560000000000  119.557693666700  9.350000000000  1  # C
 84.320000000000  120.273608000000  9.350000000000  1  # C
 84.320000000000  121.705436666700  9.350000000000  1  # C
 83.080000000000  122.421351000000  9.350000000000  1  # C
 83.080000000000  123.853179666700  9.350000000000  1  # C
 81.840000000000  124.569094000000  9.350000000000  1  # C
 81.840000000000  126.000922666700  9.350000000000  1  # C
 80.600000000000  126.716837000000  9.350000000000  1  # C
 80.600000000000  128.148665666700  9.350000000000  1  # C
 79.360000000000  128.864580000000  9.350000000000  1  # C
 79.360000000000  130.296408666700  9.350000000000  1  # C
 78.120000000000  131.012323000000  9.350000000000  1  # C
 78.120000000000  132.444151666700  9.350000000000  1  # C
 76.880000000000  133.160066000000  9.350000000000  1  # C
 76.880000000000  134.591894666700  9.350000000000  1  # C
 75.640000000000  135.307809000000  9.350000000000  1  # C
 75.640000000000  136.739637666700  9.350000000000  1  # C
 74.400000000000  137.455552000000  9.350000000000  1  # C
 74.400000000000  138.887380666700  9.350000000000  1  # C
 73.160000000000  139.603295000000  9.350000000000  1  # C
 73.160000000000  141.035123666700  9.350000000000  1  # C
 71.920000000000  141.751038000000  9.350000000000  1  # C
 71.920000000000  143.182866666700  9.350000000000  1  # C
 70.680000000000  143.898781000000  9.350000000000  1  # C
 70.680000000000  145.330609666700  9.350000000000  1  # C
 69.440000000000  146.046524000000  9.350000000000  1  # C
 69.440000000000  147.478352666700  9.350000000000  1  # C
 68.200000000000  148.194267000000  9.350000000000  1  # C
 68.200000000000  149.626095666700  9.350000000000  1  # C
 66.960000000000  150.342010000000  9.350000000000  1  # C
 66.960000000000  151.773838666700  9.350000000000  1  # C
 65.720000000000  152.489753000000  9.350000000000  1  # C
 65.720000000000  153.921581666700  9.350000000000  1  # C
 64.480000000000  154.637496000000  9.350000000000  1  # C
 64.480000000000  156.069324666700  9.350000000000  1  # C
 63.240000000000  156.785239000000  9.350000000000  1  # C
 63.240000000000  158.217067666700  9.350000000000  1  # C
 62.000000000000  158.932982000000  9.350000000000  1  # C
 62.000000000000  160.364810666700  9.350000000000  1  # C
 60.760000000000  161.080725000000  9.350000000000  1  # C
 60.760000000000  162.512553666700  9.350000000000  1  # C
 59.520000000000  163.228468000000  9.350000000000  1  # C
 59.520000000000  164.660296666700  9.350000000000  1  # C
 58.280000000000  165.376211000000  9.350000000000  1  # C
 111.600000000000  77.318748000000  9.350000000000  1  # C
 111.600000000000  78.750576666700  9.350000000000  1  # C
 110.360000000000  79.466491000000  9.350000000000  1  # C
 110.360000000000  80.898319666700  9.350000000000  1  # C
 109.120000000000  81.614234000000  9.350000000000  1  # C
 109.120000000000  83.046062666700  9.350000000000  1  # C
 107.880000000000  83.761977000000  9.350000000000  1  # C
 107.880000000000  85.193805666700  9.350000000000  1  # C
 106.640000000000  85.909720000000  9.350000000000  1  # C
 106.640000000000  87.341548666700  9.350000000000  1  # C
 105.400000000000  88.057463000000  9.350000000000  1  # C
 105.400000000000  89.489291666700  9.350000000000  1  # C
 104.160000000000  90.205206000000  9.350000000000  1  # C
 104.160000000000  91.637034666700  9.350000000000  1  # C
 102.920000000000  92.352949000000  9.350000000000  1  # C
 102.920000000000  93.784777666700  9.350000000000  1  # C
 101.680000000000  94.500692000000  9.350000000000  1  # C
 101.680000000000  95.932520666700  9.350000000000  1  # C
 100.440000000000  96.648435000000  9.350000000000  1  # C
 100.440000000000  98.080263666700  9.350000000000  1  # C
 99.200000000000  98.796178000000  9.350000000000  1  # C
 99.200000000000  100.228006666700  9.350000000000  1  # C
 97.960000000000  100.943921000000  9.350000000000  1  # C
 97.960000000000  102.375749666700  9.350000000000  1  # C
 96.720000000000  103.091664000000  9.350000000000  1  # C
 96.720000000000  104.523492666700  9.350000000000  1  # C
 95.480000000000  105.239407000000  9.350000000000  1  # C
 95.480000000000  106.671235666700  9.350000000000  1  # C
 94.240000000000  107.387150000000  9.350000000000  1  # C
 94.240000000000  108.818978666700  9.350000000000  1  # C
 93.000000000000  109.534893000000  9.350000000000  1  # C
 93.000000000000  110.966721666700  9.350000000000  1  # C
 91.760000000000  111.682636000000  9.350000000000  1  # C
 91.760000000000  113.114464666700  9.350000000000  1  # C
 90.520000000000  113.830379000000  9.350000000000  1  # C
 90.520000000000  115.262207666700  9.350000000000  1  # C
 89.280000000000  115.978122000000  9.350000000000  1  # C
 89.280000000000  117.409950666700  9.350000000000  1  # C
 88.040000000000  118.125865000000  9.350000000000  1  # C
 88.040000000000  119.557693666700  9.350000000000  1  # C
 86.800000000000  120.273608000000  9.350000000000  1  # C
 86.800000000000  121.705436666700  9.350000000000  1  # C
 85.560000000000  122.421351000000  9.350000000000  1  # C
 85.560000000000  123.853179666700  9.350000000000  1  # C
 84.320000000000  124.569094000000  9.350000000000  1  # C
 84.320000000000  126.000922666700  9.350000000000  1  # C
 83.080000000000  126.716837000000  9.350000000000  1  # C
 83.080000000000  128.148665666700  9.350000000000  1  # C
 81.840000000000  128.864580000000  9.350000000000  1  # C
 81.840000000000  130.296408666700  9.350000000000  1  # C
 80.600000000000  131.012323000000  9.350000000000  1  # C
 80.600000000000  132.444151666700  9.350000000000  1  # C
 79.360000000000  133.160066000000  9.350000000000  1  # C
 79.360000000000  134.591894666700  9.350000000000  1  # C
 78.120000000000  135.307809000000  9.350000000000  1  # C
 78.120000000000  136.739637666700  9.350000000000  1  # C
 76.880000000000  137.455552000000  9.350000000000  1  # C
 76.880000000000  138.887380666700  9.350000000000  1  # C
 75.640000000000  139.603295000000  9.350000000000  1  # C
 75.640000000000  141.035123666700  9.350000000000  1  # C
 74.400000000000  141.751038000000  9.350000000000  1  # C
 74.400000000000  143.182866666700  9.350000000000  1  # C
 73.160000000000  143.898781000000  9.350000000000  1  # C
 73.160000000000  145.330609666700  9.350000000000  1  # C
 71.920000000000  146.046524000000  9.350000000000  1  # C
 71.920000000000  147.478352666700  9.350000000000  1  # C
 70.680000000000  148.194267000000  9.350000000000  1  # C
 70.680000000000  149.626095666700  9.350000000000  1  # C
 69.440000000000  150.342010000000  9.350000000000  1  # C
 69.440000000000  151.773838666700  9.350000000000  1  # C
 68.200000000000  152.489753000000  9.350000000000  1  # C
 68.200000000000  153.921581666700  9.350000000000  1  # C
 66.960000000000  154.637496000000  9.350000000000  1  # C
 66.960000000000  156.069324666700  9.350000000000  1  # C
 65.720000000000  156.785239000000  9.350000000000  1  # C
 65.720000000000  158.217067666700  9.350000000000  1  # C
 64.480000000000  158.932982000000  9.350000000000  1  # C
 64.480000000000  160.364810666700  9.350000000000  1  # C
 63.240000000000  161.080725000000  9.350000000000  1  # C
 63.240000000000  162.512553666700  9.350000000000  1  # C
 62.000000000000  163.228468000000  9.350000000000  1  # C
 62.000000000000  164.660296666700  9.350000000000  1  # C
 60.760000000000  165.376211000000  9.350000000000  1  # C
 60.760000000000  166.808039666700  9.350000000000  1  # C
 111.600000000000  81.614234000000  9.350000000000  1  # C
 111.600000000000  83.046062666700  9.350000000000  1  # C
 110.360000000000  83.761977000000  9.350000000000  1  # C
 110.360000000000  85.193805666700  9.350000000000  1  # C
 109.120000000000  85.909720000000  9.350000000000  1  # C
 109.120000000000  87.341548666700  9.350000000000  1  # C
 107.880000000000  88.057463000000  9.350000000000  1  # C
 107.880000000000  89.489291666700  9.350000000000  1  # C
 106.640000000000  90.205206000000  9.350000000000  1  # C
 106.640000000000  91.637034666700  9.350000000000  1  # C
 105.400000000000  92.352949000000  9.350000000000  1  # C
 105.400000000000  93.784777666700  9.350000000000  1  # C
 104.160000000000  94.500692000000  9.350000000000  1  # C
 104.160000000000  95.932520666700  9.350000000000  1  # C
 102.920000000000  96.648435000000  9.350000000000  1  # C
 102.920000000000  98.080263666700  9.350000000000  1  # C
 101.680000000000  98.796178000000  9.350000000000  1  # C
 101.680000000000  100.228006666700  9.350000000000  1  # C
 100.440000000000  100.943921000000  9.350000000000  1  # C
 100.440000000000  102.375749666700  9.350000000000  1  # C
 99.200000000000  103.091664000000  9.350000000000  1  # C
 99.200000000000  104.523492666700  9.350000000000  1  # C
 97.960000000000  105.239407000000  9.350000000000  1  # C
 97.960000000000  106.671235666700  9.350000000000  1  # C
 96.720000000000  107.387150000000  9.350000000000  1  # C
 96.720000000000  108.818978666700  9.350000000000  1  # C
 95.480000000000  109.534893000000  9.350000000000  1  # C
 95.480000000000  110.966721666700  9.350000000000  1  # C
 94.240000000000  111.682636000000  9.350000000000  1  # C
 94.240000000000  113.114464666700  9.350000000000  1  # C
 93.000000000000  113.830379000000  9.350000000000  1  # C
 93.000000000000  115.262207666700  9.350000000000  1  # C
 91.760000000000  115.978122000000  9.350000000000  1  # C
 91.760000000000  117.409950666700  9.350000000000  1  # C
 90.520000000000  118.125865000000  9.350000000000  1  # C
 90.520000000000  119.557693666700  9.350000000000  1  # C
 89.280000000000  120.273608000000  9.350000000000  1  # C
 89.280000000000  121.705436666700  9.350000000000  1  # C
 88.040000000000  122.421351000000  9.350000000000  1  # C
 88.040000000000  123.853179666700  9.350000000000  1  # C
 86.800000000000  124.569094000000  9.350000000000  1  # C
 86.800000000000  126.000922666700  9.350000000000  1  # C
 85.560000000000  126.716837000000  9.350000000000  1  # C
 85.560000000000  128.148665666700  9.350000000000  1  # C
 84.320000000000  128.864580000000  9.350000000000  1  # C
 84.320000000000  130.296408666700  9.350000000000  1  # C
 83.080000000000  131.012323000000  9.350000000000  1  # C
 83.080000000000  132.444151666700  9.350000000000  1  # C
 81.840000000000  133.160066000000  9.350000000000  1  # C
 81.840000000000  134.591894666700  9.350000000000  1  # C
 80.600000000000  135.307809000000  9.350000000000  1  # C
 80.600000000000  136.739637666700  9.350000000000  1  # C
 79.360000000000  137.455552000000  9.350000000000  1  # C
 79.360000000000  138.887380666700  9.350000000000  1  # C
 78.120000000000  139.603295000000  9.350000000000  1  # C
 78.120000000000  141.035123666700  9.350000000000  1  # C
 76.880000000000  141.751038000000  9.350000000000  1  # C
 76.880000000000  143.182866666700  9.350000000000  1  # C
 75.640000000000  143.898781000000  9.350000000000  1  # C
 75.640000000000  145.330609666700  9.350000000000  1  # C
 74.400000000000  146.046524000000  9.350000000000  1  # C
 74.400000000000  147.478352666700  9.350000000000  1  # C
 73.160000000000  148.194267000000  9.350000000000  1  # C
 73.160000000000  149.626095666700  9.350000000000  1  # C
 71.920000000000  150.342010000000  9.350000000000  1  # C
 71.920000000000  151.773838666700  9.350000000000  1  # C
 70.680000000000  152.489753000000  9.350000000000  1  # C
 70.680000000000  153.921581666700  9.350000000000  1  # C
 69.440000000000  154.637496000000  9.350000000000  1  # C
 69.440000000000  156.069324666700  9.350000000000  1  # C
 68.200000000000  156.785239000000  9.350000000000  1  # C
 68.200000000000  158.217067666700  9.350000000000  1  # C
 66.960000000000  158.932982000000  9.350000000000  1  # C
 66.960000000000  160.364810666700  9.350000000000  1  # C
 65.720000000000  161.080725000000  9.350000000000  1  # C
 65.720000000000  162.512553666700  9.350000000000  1  # C
 64.480000000000  163.228468000000  9.350000000000  1  # C
 64.480000000000  164.660296666700  9.350000000000  1  # C
 63.240000000000  165.376211000000  9.350000000000  1  # C
 63.240000000000  166.808039666700  9.350000000000  1  # C
 62.000000000000  167.523954000000  9.350000000000  1  # C
 111.600000000000  85.909720000000  9.350000000000  1  # C
 111.600000000000  87.341548666700  9.350000000000  1  # C
 110.360000000000  88.057463000000  9.350000000000  1  # C
 110.360000000000  89.489291666700  9.350000000000  1  # C
 109.120000000000  90.205206000000  9.350000000000  1  # C
 109.120000000000  91.637034666700  9.350000000000  1  # C
 107.880000000000  92.352949000000  9.350000000000  1  # C
 107.880000000000  93.784777666700  9.350000000000  1  # C
 106.640000000000  94.500692000000  9.350000000000  1  # C
 106.640000000000  95.932520666700  9.350000000000  1  # C
 105.400000000000  96.648435000000  9.350000000000  1  # C
 105.400000000000  98.080263666700  9.350000000000  1  # C
 104.160000000000  98.796178000000  9.350000000000  1  # C
 104.160000000000  100.228006666700  9.350000000000  1  # C
 102.920000000000  100.943921000000  9.350000000000  1  # C
 102.920000000000  102.375749666700  9.350000000000  1  # C
 101.680000000000  103.091664000000  9.350000000000  1  # C
 101.680000000000  104.523492666700  9.350000000000  1  # C
 100.440000000000  105.239407000000  9.350000000000  1  # C
 100.440000000000  106.671235666700  9.350000000000  1  # C
 99.200000000000  107.387150000000  9.350000000000  1  # C
 99.200000000000  108.818978666700  9.350000000000  1  # C
 97.960000000000  109.534893000000  9.350000000000  1  # C
 97.960000000000  110.966721666700  9.350000000000  1  # C
 96.720000000000  111.682636000000  9.350000000000  1  # C
 96.720000000000  113.114464666700  9.350000000000  1  # C
 95.480000000000  113.830379000000  9.350000000000  1  # C
 95.480000000000  115.262207666700  9.350000000000  1  # C
 94.240000000000  115.978122000000  9.350000000000  1  # C
 94.240000000000  117.409950666700  9.350000000000  1  # C
 93.000000000000  118.125865000000  9.350000000000  1  # C
 93.000000000000  119.557693666700  9.350000000000  1  # C
 91.760000000000  120.273608000000  9.350000000000  1  # C
 91.760000000000  121.705436666700  9.350000000000  1  # C
 90.520000000000  122.421351000000  9.350000000000  1  # C
 90.520000000000  123.853179666700  9.350000000000  1  # C
 89.280000000000  124.569094000000  9.350000000000  1  # C
 89.280000000000  126.000922666700  9.350000000000  1  # C
 88.040000000000  126.716837000000  9.350000000000  1  # C
 88.040000000000  128.148665666700  9.350000000000  1  # C
 86.800000000000  128.864580000000  9.350000000000  1  # C
 86.800000000000  130.296408666700  9.350000000000  1  # C
 85.560000000000  131.012323000000  9.350000000000  1  # C
 85.560000000000  132.444151666700  9.350000000000  1  # C
 84.320000000000  133.160066000000  9.350000000000  1  # C
 84.320000000000  134.591894666700  9.350000000000  1  # C
 83.080000000000  135.307809000000  9.350000000000  1  # C
 83.080000000000  136.739637666700  9.350000000000  1  # C
 81.840000000000  137.455552000000  9.350000000000  1  # C
 81.840000000000  138.887380666700  9.350000000000  1  # C
 80.600000000000  139.603295000000  9.350000000000  1  # C
 80.600000000000  141.035123666700  9.350000000000  1  # C
 79.360000000000  141.751038000000  9.350000000000  1  # C
 79.360000000000  143.182866666700  9.350000000000  1  # C
 78.120000000000  143.898781000000  9.350000000000  1  # C
 78.120000000000  145.330609666700  9.350000000000  1  # C
 76.880000000000  146.046524000000  9.350000000000  1  # C
 76.880000000000  147.478352666700  9.350000000000  1  # C
 75.640000000000  148.194267000000  9.350000000000  1  # C
 75.640000000000  149.626095666700  9.350000000000  1  # C
 74.400000000000  150.342010000000  9.350000000000  1  # C
 74.400000000000  151.773838666700  9.350000000000  1  # C
 73.160000000000  152.489753000000  9.350000000000  1  # C
 73.160000000000  153.921581666700  9.350000000000  1  # C
 71.920000000000  154.637496000000  9.350000000000  1  # C
 71.920000000000  156.069324666700  9.350000000000  1  # C
 70.680000000000  156.785239000000  9.350000000000  1  # C
 70.680000000000  158.217067666700  9.350000000000  1  # C
 69.440000000000  158.932982000000  9.350000000000  1  # C
 69.440000000000  160.364810666700  9.350000000000  1  # C
 68.200000000000  161.080725000000  9.350000000000  1  # C
 68.200000000000  162.512553666700  9.350000000000  1  # C
 66.960000000000  163.228468000000  9.350000000000  1  # C
 66.960000000000  164.660296666700  9.350000000000  1  # C
 65.720000000000  165.376211000000  9.350000000000  1  # C
 65.720000000000  166.808039666700  9.350000000000  1  # C
 64.480000000000  167.523954000000  9.350000000000  1  # C
 64.480000000000  168.955782666700  9.350000000000  1  # C
 111.600000000000  90.205206000000  9.350000000000  1  # C
 111.600000000000  91.637034666700  9.350000000000  1  # C
 110.360000000000  92.352949000000  9.350000000000  1  # C
 110.360000000000  93.784777666700  9.350000000000  1  # C
 109.120000000000  94.500692000000  9.350000000000  1  # C
 109.120000000000  95.932520666700  9.350000000000  1  # C
 107.880000000000  96.648435000000  9.350000000000  1  # C
 107.880000000000  98.080263666700  9.350000000000  1  # C
 106.640000000000  98.796178000000  9.350000000000  1  # C
 106.640000000000  100.228006666700  9.350000000000  1  # C
 105.400000000000  100.943921000000  9.350000000000  1  # C
 105.400000000000  102.375749666700  9.350000000000  1  # C
 104.160000000000  103.091664000000  9.350000000000  1  # C
 104.160000000000  104.523492666700  9.350000000000  1  # C
 102.920000000000  105.239407000000  9.350000000000  1  # C
 102.920000000000  106.671235666700  9.350000000000  1  # C
 101.680000000000  107.387150000000  9.350000000000  1  # C
 101.680000000000  108.818978666700  9.350000000000  1  # C
 100.440000000000  109.534893000000  9.350000000000  1  # C
 100.440000000000  110.966721666700  9.350000000000  1  # C
 99.200000000000  111.682636000000  9.350000000000  1  # C
 99.200000000000  113.114464666700  9.350000000000  1  # C
 97.960000000000  113.830379000000  9.350000000000  1  # C
 97.960000000000  115.262207666700  9.350000000000  1  # C
 96.720000000000  115.978122000000  9.350000000000  1  # C
 96.720000000000  117.409950666700  9.350000000000  1  # C
 95.480000000000  118.125865000000  9.350000000000  1  # C
 95.480000000000  119.557693666700  9.350000000000  1  # C
 94.240000000000  120.273608000000  9.350000000000  1  # C
 94.240000000000  121.705436666700  9.350000000000  1  # C
 93.000000000000  122.421351000000  9.350000000000  1  # C
 93.000000000000  123.853179666700  9.350000000000  1  # C
 91.760000000000  124.569094000000  9.350000000000  1  # C
 91.760000000000  126.000922666700  9.350000000000  1  # C
 90.520000000000  126.716837000000  9.350000000000  1  # C
 90.520000000000  128.148665666700  9.350000000000  1  # C
 89.280000000000  128.864580000000  9.350000000000  1  # C
 89.280000000000  130.296408666700  9.350000000000  1  # C
 88.040000000000  131.012323000000  9.350000000000  1  # C
 88.040000000000  132.444151666700  9.350000000000  1  # C
 86.800000000000  133.160066000000  9.350000000000  1  # C
 86.800000000000  134.591894666700  9.350000000000  1  # C
 85.560000000000  135.307809000000  9.350000000000  1  # C
 85.560000000000  136.739637666700  9.350000000000  1  # C
 84.320000000000  137.455552000000  9.350000000000  1  # C
 84.320000000000  138.887380666700  9.350000000000  1  # C
 83.080000000000  139.603295000000  9.350000000000  1  # C
 83.080000000000  141.035123666700  9.350000000000  1  # C
 81.840000000000  141.751038000000  9.350000000000  1  # C
 81.840000000000  143.182866666700  9.350000000000  1  # C
 80.600000000000  143.898781000000  9.350000000000  1  # C
 80.600000000000  145.330609666700  9.350000000000  1  # C
 79.360000000000  146.046524000000  9.350000000000  1  # C
 79.360000000000  147.478352666700  9.350000000000  1  # C
 78.120000000000  148.194267000000  9.350000000000  1  # C
 78.120000000000  149.626095666700  9.350000000000  1  # C
 76.880000000000  150.342010000000  9.350000000000  1  # C
 76.880000000000  151.773838666700  9.350000000000  1  # C
 75.640000000000  152.489753000000  9.350000000000  1  # C
 75.640000000000  153.921581666700  9.350000000000  1  # C
 74.400000000000  154.637496000000  9.350000000000  1  # C
 74.400000000000  156.069324666700  9.350000000000  1  # C
 73.160000000000  156.785239000000  9.350000000000  1  # C
 73.160000000000  158.217067666700  9.350000000000  1  # C
 71.920000000000  158.932982000000  9.350000000000  1  # C
 71.920000000000  160.364810666700  9.350000000000  1  # C
 70.680000000000  161.080725000000  9.350000000000  1  # C
 70.680000000000  162.512553666700  9.350000000000  1  # C
 69.440000000000  163.228468000000  9.350000000000  1  # C
 69.440000000000  164.660296666700  9.350000000000  1  # C
 68.200000000000  165.376211000000  9.350000000000  1  # C
 68.200000000000  166.808039666700  9.350000000000  1  # C
 66.960000000000  167.523954000000  9.350000000000  1  # C
 66.960000000000  168.955782666700  9.350000000000  1  # C
 65.720000000000  169.671697000000  9.350000000000  1  # C
 111.600000000000  94.500692000000  9.350000000000  1  # C
 111.600000000000  95.932520666700  9.350000000000  1  # C
 110.360000000000  96.648435000000  9.350000000000  1  # C
 110.360000000000  98.080263666700  9.350000000000  1  # C
 109.120000000000  98.796178000000  9.350000000000  1  # C
 109.120000000000  100.228006666700  9.350000000000  1  # C
 107.880000000000  100.943921000000  9.350000000000  1  # C
 107.880000000000  102.375749666700  9.350000000000  1  # C
 106.640000000000  103.091664000000  9.350000000000  1  # C
 106.640000000000  104.523492666700  9.350000000000  1  # C
 105.400000000000  105.239407000000  9.350000000000  1  # C
 105.400000000000  106.671235666700  9.350000000000  1  # C
 104.160000000000  107.387150000000  9.350000000000  1  # C
 104.160000000000  108.818978666700  9.350000000000  1  # C
 102.920000000000  109.534893000000  9.350000000000  1  # C
 102.920000000000  110.966721666700  9.350000000000  1  # C
 101.680000000000  111.682636000000  9.350000000000  1  # C
 101.680000000000  113.114464666700  9.350000000000  1  # C
 100.440000000000  113.830379000000  9.350000000000  1  # C
 100.440000000000  115.262207666700  9.350000000000  1  # C
 99.200000000000  115.978122000000  9.350000000000  1  # C
 99.200000000000  117.409950666700  9.350000000000  1  # C
 97.960000000000  118.125865000000  9.350000000000  1  # C
 97.960000000000  119.557693666700  9.350000000000  1  # C
 96.720000000000  120.273608000000  9.350000000000  1  # C
 96.720000000000  121.705436666700  9.350000000000  1  # C
 95.480000000000  122.421351000000  9.350000000000  1  # C
 95.480000000000  123.853179666700  9.350000000000  1  # C
 94.240000000000  124.569094000000  9.350000000000  1  # C
 94.240000000000  126.000922666700  9.350000000000  1  # C
 93.000000000000  126.716837000000  9.350000000000  1  # C
 93.000000000000  128.148665666700  9.350000000000  1  # C
 91.760000000000  128.864580000000  9.350000000000  1  # C
 91.760000000000  130.296408666700  9.350000000000  1  # C
 90.520000000000  131.012323000000  9.350000000000  1  # C
 90.520000000000  132.444151666700  9.350000000000  1  # C
 89.280000000000  133.160066000000  9.350000000000  1  # C
 89.280000000000  134.591894666700  9.350000000000  1  # C
 88.040000000000  135.307809000000  9.350000000000  1  # C
 88.040000000000  136.739637666700  9.350000000000  1  # C
 86.800000000000  137.455552000000  9.350000000000  1  # C
 86.800000000000  138.887380666700  9.350000000000  1  # C
 85.560000000000  139.603295000000  9.350000000000  1  # C
 85.560000000000  141.035123666700  9.350000000000  1  # C
 84.320000000000  141.751038000000  9.350000000000  1  # C
 84.320000000000  143.182866666700  9.350000000000  1  # C
 83.080000000000  143.898781000000  9.350000000000  1  # C
 83.080000000000  145.330609666700  9.350000000000  1  # C
 81.840000000000  146.046524000000  9.350000000000  1  # C
 81.840000000000  147.478352666700  9.350000000000  1  # C
 80.600000000000  148.194267000000  9.350000000000  1  # C
 80.600000000000  149.626095666700  9.350000000000  1  # C
 79.360000000000  150.342010000000  9.350000000000  1  # C
 79.360000000000  151.773838666700  9.350000000000  1  # C
 78.120000000000  152.489753000000  9.350000000000  1  # C
 78.120000000000  153.921581666700  9.350000000000  1  # C
 76.880000000000  154.637496000000  9.350000000000  1  # C
 76.880000000000  156.069324666700  9.350000000000  1  # C
 75.640000000000  156.785239000000  9.350000000000  1  # C
 75.640000000000  158.217067666700  9.350000000000  1  # C
 74.400000000000  158.932982000000  9.350000000000  1  # C
 74.400000000000  160.364810666700  9.350000000000  1  # C
 73.160000000000  161.080725000000  9.350000000000  1  # C
 73.160000000000  162.512553666700  9.350000000000  1  # C
 71.920000000000  163.228468000000  9.350000000000  1  # C
 71.920000000000  164.660296666700  9.350000000000  1  # C
 70.680000000000  165.376211000000  9.350000000000  1  # C
 70.680000000000  166.808039666700  9.350000000000  1  # C
 69.440000000000  167.523954000000  9.350000000000  1  # C
 69.440000000000  168.955782666700  9.350000000000  1  # C
 68.200000000000  169.671697000000  9.350000000000  1  # C
 68.200000000000  171.103525666700  9.350000000000  1  # C
 111.600000000000  98.796178000000  9.350000000000  1  # C
 111.600000000000  100.228006666700  9.350000000000  1  # C
 110.360000000000  100.943921000000  9.350000000000  1  # C
 110.360000000000  102.375749666700  9.350000000000  1  # C
 109.120000000000  103.091664000000  9.350000000000  1  # C
 109.120000000000  104.523492666700  9.350000000000  1  # C
 107.880000000000  105.239407000000  9.350000000000  1  # C
 107.880000000000  106.671235666700  9.350000000000  1  # C
 106.640000000000  107.387150000000  9.350000000000  1  # C
 106.640000000000  108.818978666700  9.350000000000  1  # C
 105.400000000000  109.534893000000  9.350000000000  1  # C
 105.400000000000  110.966721666700  9.350000000000  1  # C
 104.160000000000  111.682636000000  9.350000000000  1  # C
 104.160000000000  113.114464666700  9.350000000000  1  # C
 102.920000000000  113.830379000000  9.350000000000  1  # C
 102.920000000000  115.262207666700  9.350000000000  1  # C
 101.680000000000  115.978122000000  9.350000000000  1  # C
 101.680000000000  117.409950666700  9.350000000000  1  # C
 100.440000000000  118.125865000000  9.350000000000  1  # C
 100.440000000000  119.557693666700  9.350000000000  1  # C
 99.200000000000  120.273608000000  9.350000000000  1  # C
 99.200000000000  121.705436666700  9.350000000000  1  # C
 97.960000000000  122.421351000000  9.350000000000  1  # C
 97.960000000000  123.853179666700  9.350000000000  1  # C
 96.720000000000  124.569094000000  9.350000000000  1  # C
 96.720000000000  126.000922666700  9.350000000000  1  # C
 95.480000000000  126.716837000000  9.350000000000  1  # C
 95.480000000000  128.148665666700  9.350000000000  1  # C
 94.240000000000  128.864580000000  9.350000000000  1  # C
 94.240000000000  130.296408666700  9.350000000000  1  # C
 93.000000000000  131.012323000000  9.350000000000  1  # C
 93.000000000000  132.444151666700  9.350000000000  1  # C
 91.760000000000  133.160066000000  9.350000000000  1  # C
 91.760000000000  134.591894666700  9.350000000000  1  # C
 90.520000000000  135.307809000000  9.350000000000  1  # C
 90.520000000000  136.739637666700  9.350000000000  1  # C
 89.280000000000  137.455552000000  9.350000000000  1  # C
 89.280000000000  138.887380666700  9.350000000000  1  # C
 88.040000000000  139.603295000000  9.350000000000  1  # C
 88.040000000000  141.035123666700  9.350000000000  1  # C
 86.800000000000  141.751038000000  9.350000000000  1  # C
 86.800000000000  143.182866666700  9.350000000000  1  # C
 85.560000000000  143.898781000000  9.350000000000  1  # C
 85.560000000000  145.330609666700  9.350000000000  1  # C
 84.320000000000  146.046524000000  9.350000000000  1  # C
 84.320000000000  147.478352666700  9.350000000000  1  # C
 83.080000000000  148.194267000000  9.350000000000  1  # C
 83.080000000000  149.626095666700  9.350000000000  1  # C
 81.840000000000  150.342010000000  9.350000000000  1  # C
 81.840000000000  151.773838666700  9.350000000000  1  # C
 80.600000000000  152.489753000000  9.350000000000  1  # C
 80.600000000000  153.921581666700  9.350000000000  1  # C
 79.360000000000  154.637496000000  9.350000000000  1  # C
 79.360000000000  156.069324666700  9.350000000000  1  # C
 78.120000000000  156.785239000000  9.350000000000  1  # C
 78.120000000000  158.217067666700  9.350000000000  1  # C
 76.880000000000  158.932982000000  9.350000000000  1  # C
 76.880000000000  160.364810666700  9.350000000000  1  # C
 75.640000000000  161.080725000000  9.350000000000  1  # C
 75.640000000000  162.512553666700  9.350000000000  1  # C
 74.400000000000  163.228468000000  9.350000000000  1  # C
 74.400000000000  164.660296666700  9.350000000000  1  # C
 73.160000000000  165.376211000000  9.350000000000  1  # C
 73.160000000000  166.808039666700  9.350000000000  1  # C
 71.920000000000  167.523954000000  9.350000000000  1  # C
 71.920000000000  168.955782666700  9.350000000000  1  # C
 70.680000000000  169.671697000000  9.350000000000  1  # C
 70.680000000000  171.103525666700  9.350000000000  1  # C
 69.440000000000  171.819440000000  9.350000000000  1  # C
 111.600000000000  103.091664000000  9.350000000000  1  # C
 111.600000000000  104.523492666700  9.350000000000  1  # C
 110.360000000000  105.239407000000  9.350000000000  1  # C
 110.360000000000  106.671235666700  9.350000000000  1  # C
 109.120000000000  107.387150000000  9.350000000000  1  # C
 109.120000000000  108.818978666700  9.350000000000  1  # C
 107.880000000000  109.534893000000  9.350000000000  1  # C
 107.880000000000  110.966721666700  9.350000000000  1  # C
 106.640000000000  111.682636000000  9.350000000000  1  # C
 106.640000000000  113.114464666700  9.350000000000  1  # C
 105.400000000000  113.830379000000  9.350000000000  1  # C
 105.400000000000  115.262207666700  9.350000000000  1  # C
 104.160000000000  115.978122000000  9.350000000000  1  # C
 104.160000000000  117.409950666700  9.350000000000  1  # C
 102.920000000000  118.125865000000  9.350000000000  1  # C
 102.920000000000  119.557693666700  9.350000000000  1  # C
 101.680000000000  120.273608000000  9.350000000000  1  # C
 101.680000000000  121.705436666700  9.350000000000  1  # C
 100.440000000000  122.421351000000  9.350000000000  1  # C
 100.440000000000  123.853179666700  9.350000000000  1  # C
 99.200000000000  124.569094000000  9.350000000000  1  # C
 99.200000000000  126.000922666700  9.350000000000  1  # C
 97.960000000000  126.716837000000  9.350000000000  1  # C
 97.960000000000  128.148665666700  9.350000000000  1  # C
 96.720000000000  128.864580000000  9.350000000000  1  # C
 96.720000000000  130.296408666700  9.350000000000  1  # C
 95.480000000000  131.012323000000  9.350000000000  1  # C
 95.480000000000  132.444151666700  9.350000000000  1  # C
 94.240000000000  133.160066000000  9.350000000000  1  # C
 94.240000000000  134.591894666700  9.350000000000  1  # C
 93.000000000000  135.307809000000  9.350000000000  1  # C
 93.000000000000  136.739637666700  9.350000000000  1  # C
 91.760000000000  137.455552000000  9.350000000000  1  # C
 91.760000000000  138.887380666700  9.350000000000  1  # C
 90.520000000000  139.603295000000  9.350000000000  1  # C
 90.520000000000  141.035123666700  9.350000000000  1  # C
 89.280000000000  141.751038000000  9.350000000000  1  # C
 89.280000000000  143.182866666700  9.350000000000  1  # C
 88.040000000000  143.898781000000  9.350000000000  1  # C
 88.040000000000  145.330609666700  9.350000000000  1  # C
 86.800000000000  146.046524000000  9.350000000000  1  # C
 86.800000000000  147.478352666700  9.350000000000  1  # C
 85.560000000000  148.194267000000  9.350000000000  1  # C
 85.560000000000  149.626095666700  9.350000000000  1  # C
 84.320000000000  150.342010000000  9.350000000000  1  # C
 84.320000000000  151.773838666700  9.350000000000  1  # C
 83.080000000000  152.489753000000  9.350000000000  1  # C
 83.080000000000  153.921581666700  9.350000000000  1  # C
 81.840000000000  154.637496000000  9.350000000000  1  # C
 81.840000000000  156.069324666700  9.350000000000  1  # C
 80.600000000000  156.785239000000  9.350000000000  1  # C
 80.600000000000  158.217067666700  9.350000000000  1  # C
 79.360000000000  158.932982000000  9.350000000000  1  # C
 79.360000000000  160.364810666700  9.350000000000  1  # C
 78.120000000000  161.080725000000  9.350000000000  1  # C
 78.120000000000  162.512553666700  9.350000000000  1  # C
 76.880000000000  163.228468000000  9.350000000000  1  # C
 76.880000000000  164.660296666700  9.350000000000  1  # C
 75.640000000000  165.376211000000  9.350000000000  1  # C
 75.640000000000  166.808039666700  9.350000000000  1  # C
 74.400000000000  167.523954000000  9.350000000000  1  # C
 74.400000000000  168.955782666700  9.350000000000  1  # C
 73.160000000000  169.671697000000  9.350000000000  1  # C
 73.160000000000  171.103525666700  9.350000000000  1  # C
 71.920000000000  171.819440000000  9.350000000000  1  # C
 71.920000000000  173.251268666700  9.350000000000  1  # C
 111.600000000000  107.387150000000  9.350000000000  1  # C
 111.600000000000  108.818978666700  9.350000000000  1  # C
 110.360000000000  109.534893000000  9.350000000000  1  # C
 110.360000000000  110.966721666700  9.350000000000  1  # C
 109.120000000000  111.682636000000  9.350000000000  1  # C
 109.120000000000  113.114464666700  9.350000000000  1  # C
 107.880000000000  113.830379000000  9.350000000000  1  # C
 107.880000000000  115.262207666700  9.350000000000  1  # C
 106.640000000000  115.978122000000  9.350000000000  1  # C
 106.640000000000  117.409950666700  9.350000000000  1  # C
 105.400000000000  118.125865000000  9.350000000000  1  # C
 105.400000000000  119.557693666700  9.350000000000  1  # C
 104.160000000000  120.273608000000  9.350000000000  1  # C
 104.160000000000  121.705436666700  9.350000000000  1  # C
 102.920000000000  122.421351000000  9.350000000000  1  # C
 102.920000000000  123.853179666700  9.350000000000  1  # C
 101.680000000000  124.569094000000  9.350000000000  1  # C
 101.680000000000  126.000922666700  9.350000000000  1  # C
 100.440000000000  126.716837000000  9.350000000000  1  # C
 100.440000000000  128.148665666700  9.350000000000  1  # C
 99.200000000000  128.864580000000  9.350000000000  1  # C
 99.200000000000  130.296408666700  9.350000000000  1  # C
 97.960000000000  131.012323000000  9.350000000000  1  # C
 97.960000000000  132.444151666700  9.350000000000  1  # C
 96.720000000000  133.160066000000  9.350000000000  1  # C
 96.720000000000  134.591894666700  9.350000000000  1  # C
 95.480000000000  135.307809000000  9.350000000000  1  # C
 95.480000000000  136.739637666700  9.350000000000  1  # C
 94.240000000000  137.455552000000  9.350000000000  1  # C
 94.240000000000  138.887380666700  9.350000000000  1  # C
 93.000000000000  139.603295000000  9.350000000000  1  # C
 93.000000000000  141.035123666700  9.350000000000  1  # C
 91.760000000000  141.751038000000  9.350000000000  1  # C
 91.760000000000  143.182866666700  9.350000000000  1  # C
 90.520000000000  143.898781000000  9.350000000000  1  # C
 90.520000000000  145.330609666700  9.350000000000  1  # C
 89.280000000000  146.046524000000  9.350000000000  1  # C
 89.280000000000  147.478352666700  9.350000000000  1  # C
 88.040000000000  148.194267000000  9.350000000000  1  # C
 88.040000000000  149.626095666700  9.350000000000  1  # C
 86.800000000000  150.342010000000  9.350000000000  1  # C
 86.800000000000  151.773838666700  9.350000000000  1  # C
 85.560000000000  152.489753000000  9.350000000000  1  # C
 85.560000000000  153.921581666700  9.350000000000  1  # C
 84.320000000000  154.637496000000  9.350000000000  1  # C
 84.320000000000  156.069324666700  9.350000000000  1  # C
 83.080000000000  156.785239000000  9.350000000000  1  # C
 83.080000000000  158.217067666700  9.350000000000  1  # C
 81.840000000000  158.932982000000  9.350000000000  1  # C
 81.840000000000  160.364810666700  9.350000000000  1  # C
 80.600000000000  161.080725000000  9.350000000000  1  # C
 80.600000000000  162.512553666700  9.350000000000  1  # C
 79.360000000000  163.228468000000  9.350000000000  1  # C
 79.360000000000  164.660296666700  9.350000000000  1  # C
 78.120000000000  165.376211000000  9.350000000000  1  # C
 78.120000000000  166.808039666700  9.350000000000  1  # C
 76.880000000000  167.523954000000  9.350000000000  1  # C
 76.880000000000  168.955782666700  9.350000000000  1  # C
 75.640000000000  169.671697000000  9.350000000000  1  # C
 75.640000000000  171.103525666700  9.350000000000  1  # C
 74.400000000000  171.819440000000  9.350000000000  1  # C
 74.400000000000  173.251268666700  9.350000000000  1  # C
 73.160000000000  173.967183000000  9.350000000000  1  # C
 111.600000000000  111.682636000000  9.350000000000  1  # C
 111.600000000000  113.114464666700  9.350000000000  1  # C
 110.360000000000  113.830379000000  9.350000000000  1  # C
 110.360000000000  115.262207666700  9.350000000000  1  # C
 109.120000000000  115.978122000000  9.350000000000  1  # C
 109.120000000000  117.409950666700  9.350000000000  1  # C
 107.880000000000  118.125865000000  9.350000000000  1  # C
 107.880000000000  119.557693666700  9.350000000000  1  # C
 106.640000000000  120.273608000000  9.350000000000  1  # C
 106.640000000000  121.705436666700  9.350000000000  1  # C
 105.400000000000  122.421351000000  9.350000000000  1  # C
 105.400000000000  123.853179666700  9.350000000000  1  # C
 104.160000000000  124.569094000000  9.350000000000  1  # C
 104.160000000000  126.000922666700  9.350000000000  1  # C
 102.920000000000  126.716837000000  9.350000000000  1  # C
 102.920000000000  128.148665666700  9.350000000000  1  # C
 101.680000000000  128.864580000000  9.350000000000  1  # C
 101.680000000000  130.296408666700  9.350000000000  1  # C
 100.440000000000  131.012323000000  9.350000000000  1  # C
 100.440000000000  132.444151666700  9.350000000000  1  # C
 99.200000000000  133.160066000000  9.350000000000  1  # C
 99.200000000000  134.591894666700  9.350000000000  1  # C
 97.960000000000  135.307809000000  9.350000000000  1  # C
 97.960000000000  136.739637666700  9.350000000000  1  # C
 96.720000000000  137.455552000000  9.350000000000  1  # C
 96.720000000000  138.887380666700  9.350000000000  1  # C
 95.480000000000  139.603295000000  9.350000000000  1  # C
 95.480000000000  141.035123666700  9.350000000000  1  # C
 94.240000000000  141.751038000000  9.350000000000  1  # C
 94.240000000000  143.182866666700  9.350000000000  1  # C
 93.000000000000  143.898781000000  9.350000000000  1  # C
 93.000000000000  145.330609666700  9.350000000000  1  # C
 91.760000000000  146.046524000000  9.350000000000  1  # C
 91.760000000000  147.478352666700  9.350000000000  1  # C
 90.520000000000  148.194267000000  9.350000000000  1  # C
 90.520000000000  149.626095666700  9.350000000000  1  # C
 89.280000000000  150.342010000000  9.350000000000  1  # C
 89.280000000000  151.773838666700  9.350000000000  1  # C
 88.040000000000  152.489753000000  9.350000000000  1  # C
 88.040000000000  153.921581666700  9.350000000000  1  # C
 86.800000000000  154.637496000000  9.350000000000  1  # C
 86.800000000000  156.069324666700  9.350000000000  1  # C
 85.560000000000  156.785239000000  9.350000000000  1  # C
 85.560000000000  158.217067666700  9.350000000000  1  # C
 84.320000000000  158.932982000000  9.350000000000  1  # C
 84.320000000000  160.364810666700  9.350000000000  1  # C
 83.080000000000  161.080725000000  9.350000000000  1  # C
 83.080000000000  162.512553666700  9.350000000000  1  # C
 81.840000000000  163.228468000000  9.350000000000  1  # C
 81.840000000000  164.660296666700  9.350000000000  1  # C
 80.600000000000  165.376211000000  9.350000000000  1  # C
 80.600000000000  166.808039666700  9.350000000000  1  # C
 79.360000000000  167.523954000000  9.350000000000  1  # C
 79.360000000000  168.955782666700  9.350000000000  1  # C
 78.120000000000  169.671697000000  9.350000000000  1  # C
 78.120000000000  171.103525666700  9.350000000000  1  # C
 76.880000000000  171.819440000000  9.350000000000  1  # C
 76.880000000000  173.251268666700  9.350000000000  1  # C
 75.640000000000  173.967183000000  9.350000000000  1  # C
 75.640000000000  175.399011666700  9.350000000000  1  # C
 111.600000000000  115.978122000000  9.350000000000  1  # C
 111.600000000000  117.409950666700  9.350000000000  1  # C
 110.360000000000  118.125865000000  9.350000000000  1  # C
 110.360000000000  119.557693666700  9.350000000000  1  # C
 109.120000000000  120.273608000000  9.350000000000  1  # C
 109.120000000000  121.705436666700  9.350000000000  1  # C
 107.880000000000  122.421351000000  9.350000000000  1  # C
 107.880000000000  123.853179666700  9.350000000000  1  # C
 106.640000000000  124.569094000000  9.350000000000  1  # C
 106.640000000000  126.000922666700  9.350000000000  1  # C
 105.400000000000  126.716837000000  9.350000000000  1  # C
 105.400000000000  128.148665666700  9.350000000000  1  # C
 104.160000000000  128.864580000000  9.350000000000  1  # C
 104.160000000000  130.296408666700  9.350000000000  1  # C
 102.920000000000  131.012323000000  9.350000000000  1  # C
 102.920000000000  132.444151666700  9.350000000000  1  # C
 101.680000000000  133.160066000000  9.350000000000  1  # C
 101.680000000000  134.591894666700  9.350000000000  1  # C
 100.440000000000  135.307809000000  9.350000000000  1  # C
 100.440000000000  136.739637666700  9.350000000000  1  # C
 99.200000000000  137.455552000000  9.350000000000  1  # C
 99.200000000000  138.887380666700  9.350000000000  1  # C
 97.960000000000  139.603295000000  9.350000000000  1  # C
 97.960000000000  141.035123666700  9.350000000000  1  # C
 96.720000000000  141.751038000000  9.350000000000  1  # C
 96.720000000000  143.182866666700  9.350000000000  1  # C
 95.480000000000  143.898781000000  9.350000000000  1  # C
 95.480000000000  145.330609666700  9.350000000000  1  # C
 94.240000000000  146.046524000000  9.350000000000  1  # C
 94.240000000000  147.478352666700  9.350000000000  1  # C
 93.000000000000  148.194267000000  9.350000000000  1  # C
 93.000000000000  149.626095666700  9.350000000000  1  # C
 91.760000000000  150.342010000000  9.350000000000  1  # C
 91.760000000000  151.773838666700  9.350000000000  1  # C
 90.520000000000  152.489753000000  9.350000000000  1  # C
 90.520000000000  153.921581666700  9.350000000000  1  # C
 89.280000000000  154.637496000000  9.350000000000  1  # C
 89.280000000000  156.069324666700  9.350000000000  1  # C
 88.040000000000  156.785239000000  9.350000000000  1  # C
 88.040000000000  158.217067666700  9.350000000000  1  # C
 86.800000000000  158.932982000000  9.350000000000  1  # C
 86.800000000000  160.364810666700  9.350000000000  1  # C
 85.560000000000  161.080725000000  9.350000000000  1  # C
 85.560000000000  162.512553666700  9.350000000000  1  # C
 84.320000000000  163.228468000000  9.350000000000  1  # C
 84.320000000000  164.660296666700  9.350000000000  1  # C
 83.080000000000  165.376211000000  9.350000000000  1  # C
 83.080000000000  166.808039666700  9.350000000000  1  # C
 81.840000000000  167.523954000000  9.350000000000  1  # C
 81.840000000000  168.955782666700  9.350000000000  1  # C
 80.600000000000  169.671697000000  9.350000000000  1  # C
 80.600000000000  171.103525666700  9.350000000000  1  # C
 79.360000000000  171.819440000000  9.350000000000  1  # C
 79.360000000000  173.251268666700  9.350000000000  1  # C
 78.120000000000  173.967183000000  9.350000000000  1  # C
 78.120000000000  175.399011666700  9.350000000000  1  # C
 76.880000000000  176.114926000000  9.350000000000  1  # C
 111.600000000000  120.273608000000  9.350000000000  1  # C
 111.600000000000  121.705436666700  9.350000000000  1  # C
 110.360000000000  122.421351000000  9.350000000000  1  # C
 110.360000000000  123.853179666700  9.350000000000  1  # C
 109.120000000000  124.569094000000  9.350000000000  1  # C
 109.120000000000  126.000922666700  9.350000000000  1  # C
 107.880000000000  126.716837000000  9.350000000000  1  # C
 107.880000000000  128.148665666700  9.350000000000  1  # C
 106.640000000000  128.864580000000  9.350000000000  1  # C
 106.640000000000  130.296408666700  9.350000000000  1  # C
 105.400000000000  131.012323000000  9.350000000000  1  # C
 105.400000000000  132.444151666700  9.350000000000  1  # C
 104.160000000000  133.160066000000  9.350000000000  1  # C
 104.160000000000  134.591894666700  9.350000000000  1  # C
 102.920000000000  135.307809000000  9.350000000000  1  # C
 102.920000000000  136.739637666700  9.350000000000  1  # C
 101.680000000000  137.455552000000  9.350000000000  1  # C
 101.680000000000  138.887380666700  9.350000000000  1  # C
 100.440000000000  139.603295000000  9.350000000000  1  # C
 100.440000000000  141.035123666700  9.350000000000  1  # C
 99.200000000000  141.751038000000  9.350000000000  1  # C
 99.200000000000  143.182866666700  9.350000000000  1  # C
 97.960000000000  143.898781000000  9.350000000000  1  # C
 97.960000000000  145.330609666700  9.350000000000  1  # C
 96.720000000000  146.046524000000  9.350000000000  1  # C
 96.720000000000  147.478352666700  9.350000000000  1  # C
 95.480000000000  148.194267000000  9.350000000000  1  # C
 95.480000000000  149.626095666700  9.350000000000  1  # C
 94.240000000000  150.342010000000  9.350000000000  1  # C
 94.240000000000  151.773838666700  9.350000000000  1  # C
 93.000000000000  152.489753000000  9.350000000000  1  # C
 93.000000000000  153.921581666700  9.350000000000  1  # C
 91.760000000000  154.637496000000  9.350000000000  1  # C
 91.760000000000  156.069324666700  9.350000000000  1  # C
 90.520000000000  156.785239000000  9.350000000000  1  # C
 90.520000000000  158.217067666700  9.350000000000  1  # C
 89.280000000000  158.932982000000  9.350000000000  1  # C
 89.280000000000  160.364810666700  9.350000000000  1  # C
 88.040000000000  161.080725000000  9.350000000000  1  # C
 88.040000000000  162.512553666700  9.350000000000  1  # C
 86.800000000000  163.228468000000  9.350000000000  1  # C
 86.800000000000  164.660296666700  9.350000000000  1  # C
 85.560000000000  165.376211000000  9.350000000000  1  # C
 85.560000000000  166.808039666700  9.350000000000  1  # C
 84.320000000000  167.523954000000  9.350000000000  1  # C
 84.320000000000  168.955782666700  9.350000000000  1  # C
 83.080000000000  169.671697000000  9.350000000000  1  # C
 83.080000000000  171.103525666700  9.350000000000  1  # C
 81.840000000000  171.819440000000  9.350000000000  1  # C
 81.840000000000  173.251268666700  9.350000000000  1  # C
 80.600000000000  173.967183000000  9.350000000000  1  # C
 80.600000000000  175.399011666700  9.350000000000  1  # C
 79.360000000000  176.114926000000  9.350000000000  1  # C
 79.360000000000  177.546754666700  9.350000000000  1  # C
 111.600000000000  124.569094000000  9.350000000000  1  # C
 111.600000000000  126.000922666700  9.350000000000  1  # C
 110.360000000000  126.716837000000  9.350000000000  1  # C
 110.360000000000  128.148665666700  9.350000000000  1  # C
 109.120000000000  128.864580000000  9.350000000000  1  # C
 109.120000000000  130.296408666700  9.350000000000  1  # C
 107.880000000000  131.012323000000  9.350000000000  1  # C
 107.880000000000  132.444151666700  9.350000000000  1  # C
 106.640000000000  133.160066000000  9.350000000000  1  # C
 106.640000000000  134.591894666700  9.350000000000  1  # C
 105.400000000000  135.307809000000  9.350000000000  1  # C
 105.400000000000  136.739637666700  9.350000000000  1  # C
 104.160000000000  137.455552000000  9.350000000000  1  # C
 104.160000000000  138.887380666700  9.350000000000  1  # C
 102.920000000000  139.603295000000  9.350000000000  1  # C
 102.920000000000  141.035123666700  9.350000000000  1  # C
 101.680000000000  141.751038000000  9.350000000000  1  # C
 101.680000000000  143.182866666700  9.350000000000  1  # C
 100.440000000000  143.898781000000  9.350000000000  1  # C
 100.440000000000  145.330609666700  9.350000000000  1  # C
 99.200000000000  146.046524000000  9.350000000000  1  # C
 99.200000000000  147.478352666700  9.350000000000  1  # C
 97.960000000000  148.194267000000  9.350000000000  1  # C
 97.960000000000  149.626095666700  9.350000000000  1  # C
 96.720000000000  150.342010000000  9.350000000000  1  # C
 96.720000000000  151.773838666700  9.350000000000  1  # C
 95.480000000000  152.489753000000  9.350000000000  1  # C
 95.480000000000  153.921581666700  9.350000000000  1  # C
 94.240000000000  154.637496000000  9.350000000000  1  # C
 94.240000000000  156.069324666700  9.350000000000  1  # C
 93.000000000000  156.785239000000  9.350000000000  1  # C
 93.000000000000  158.217067666700  9.350000000000  1  # C
 91.760000000000  158.932982000000  9.350000000000  1  # C
 91.760000000000  160.364810666700  9.350000000000  1  # C
 90.520000000000  161.080725000000  9.350000000000  1  # C
 90.520000000000  162.512553666700  9.350000000000  1  # C
 89.280000000000  163.228468000000  9.350000000000  1  # C
 89.280000000000  164.660296666700  9.350000000000  1  # C
 88.040000000000  165.376211000000  9.350000000000  1  # C
 88.040000000000  166.808039666700  9.350000000000  1  # C
 86.800000000000  167.523954000000  9.350000000000  1  # C
 86.800000000000  168.955782666700  9.350000000000  1  # C
 85.560000000000  169.671697000000  9.350000000000  1  # C
 85.560000000000  171.103525666700  9.350000000000  1  # C
 84.320000000000  171.819440000000  9.350000000000  1  # C
 84.320000000000  173.251268666700  9.350000000000  1  # C
 83.080000000000  173.967183000000  9.350000000000  1  # C
 83.080000000000  175.399011666700  9.350000000000  1  # C
 81.840000000000  176.114926000000  9.350000000000  1  # C
 81.840000000000  177.546754666700  9.350000000000  1  # C
 80.600000000000  178.262669000000  9.350000000000  1  # C
 111.600000000000  128.864580000000  9.350000000000  1  # C
 111.600000000000  130.296408666700  9.350000000000  1  # C
 110.360000000000  131.012323000000  9.350000000000  1  # C
 110.360000000000  132.444151666700  9.350000000000  1  # C
 109.120000000000  133.160066000000  9.350000000000  1  # C
 109.120000000000  134.591894666700  9.350000000000  1  # C
 107.880000000000  135.307809000000  9.350000000000  1  # C
 107.880000000000  136.739637666700  9.350000000000  1  # C
 106.640000000000  137.455552000000  9.350000000000  1  # C
 106.640000000000  138.887380666700  9.350000000000  1  # C
 105.400000000000  139.603295000000  9.350000000000  1  # C
 105.400000000000  141.035123666700  9.350000000000  1  # C
 104.160000000000  141.751038000000  9.350000000000  1  # C
 104.160000000000  143.182866666700  9.350000000000  1  # C
 102.920000000000  143.898781000000  9.350000000000  1  # C
 102.920000000000  145.330609666700  9.350000000000  1  # C
 101.680000000000  146.046524000000  9.350000000000  1  # C
 101.680000000000  147.478352666700  9.350000000000  1  # C
 100.440000000000  148.194267000000  9.350000000000  1  # C
 100.440000000000  149.626095666700  9.350000000000  1  # C
 99.200000000000  150.342010000000  9.350000000000  1  # C
 99.200000000000  151.773838666700  9.350000000000  1  # C
 97.960000000000  152.489753000000  9.350000000000  1  # C
 97.960000000000  153.921581666700  9.350000000000  1  # C
 96.720000000000  154.637496000000  9.350000000000  1  # C
 96.720000000000  156.069324666700  9.350000000000  1  # C
 95.480000000000  156.785239000000  9.350000000000  1  # C
 95.480000000000  158.217067666700  9.350000000000  1  # C
 94.240000000000  158.932982000000  9.350000000000  1  # C
 94.240000000000  160.364810666700  9.350000000000  1  # C
 93.000000000000  161.080725000000  9.350000000000  1  # C
 93.000000000000  162.512553666700  9.350000000000  1  # C
 91.760000000000  163.228468000000  9.350000000000  1  # C
 91.760000000000  164.660296666700  9.350000000000  1  # C
 90.520000000000  165.376211000000  9.350000000000  1  # C
 90.520000000000  166.808039666700  9.350000000000  1  # C
 89.280000000000  167.523954000000  9.350000000000  1  # C
 89.280000000000  168.955782666700  9.350000000000  1  # C
 88.040000000000  169.671697000000  9.350000000000  1  # C
 88.040000000000  171.103525666700  9.350000000000  1  # C
 86.800000000000  171.819440000000  9.350000000000  1  # C
 86.800000000000  173.251268666700  9.350000000000  1  # C
 85.560000000000  173.967183000000  9.350000000000  1  # C
 85.560000000000  175.399011666700  9.350000000000  1  # C
 84.320000000000  176.114926000000  9.350000000000  1  # C
 84.320000000000  177.546754666700  9.350000000000  1  # C
 83.080000000000  178.262669000000  9.350000000000  1  # C
 83.080000000000  179.694497666700  9.350000000000  1  # C
 111.600000000000  133.160066000000  9.350000000000  1  # C
 111.600000000000  134.591894666700  9.350000000000  1  # C
 110.360000000000  135.307809000000  9.350000000000  1  # C
 110.360000000000  136.739637666700  9.350000000000  1  # C
 109.120000000000  137.455552000000  9.350000000000  1  # C
 109.120000000000  138.887380666700  9.350000000000  1  # C
 107.880000000000  139.603295000000  9.350000000000  1  # C
 107.880000000000  141.035123666700  9.350000000000  1  # C
 106.640000000000  141.751038000000  9.350000000000  1  # C
 106.640000000000  143.182866666700  9.350000000000  1  # C
 105.400000000000  143.898781000000  9.350000000000  1  # C
 105.400000000000  145.330609666700  9.350000000000  1  # C
 104.160000000000  146.046524000000  9.350000000000  1  # C
 104.160000000000  147.478352666700  9.350000000000  1  # C
 102.920000000000  148.194267000000  9.350000000000  1  # C
 102.920000000000  149.626095666700  9.350000000000  1  # C
 101.680000000000  150.342010000000  9.350000000000  1  # C
 101.680000000000  151.773838666700  9.350000000000  1  # C
 100.440000000000  152.489753000000  9.350000000000  1  # C
 100.440000000000  153.921581666700  9.350000000000  1  # C
 99.200000000000  154.637496000000  9.350000000000  1  # C
 99.200000000000  156.069324666700  9.350000000000  1  # C
 97.960000000000  156.785239000000  9.350000000000  1  # C
 97.960000000000  158.217067666700  9.350000000000  1  # C
 96.720000000000  158.932982000000  9.350000000000  1  # C
 96.720000000000  160.364810666700  9.350000000000  1  # C
 95.480000000000  161.080725000000  9.350000000000  1  # C
 95.480000000000  162.512553666700  9.350000000000  1  # C
 94.240000000000  163.228468000000  9.350000000000  1  # C
 94.240000000000  164.660296666700  9.350000000000  1  # C
 93.000000000000  165.376211000000  9.350000000000  1  # C
 93.000000000000  166.808039666700  9.350000000000  1  # C
 91.760000000000  167.523954000000  9.350000000000  1  # C
 91.760000000000  168.955782666700  9.350000000000  1  # C
 90.520000000000  169.671697000000  9.350000000000  1  # C
 90.520000000000  171.103525666700  9.350000000000  1  # C
 89.280000000000  171.819440000000  9.350000000000  1  # C
 89.280000000000  173.251268666700  9.350000000000  1  # C
 88.040000000000  173.967183000000  9.350000000000  1  # C
 88.040000000000  175.399011666700  9.350000000000  1  # C
 86.800000000000  176.114926000000  9.350000000000  1  # C
 86.800000000000  177.546754666700  9.350000000000  1  # C
 85.560000000000  178.262669000000  9.350000000000  1  # C
 85.560000000000  179.694497666700  9.350000000000  1  # C
 84.320000000000  180.410412000000  9.350000000000  1  # C
 111.600000000000  137.455552000000  9.350000000000  1  # C
 111.600000000000  138.887380666700  9.350000000000  1  # C
 110.360000000000  139.603295000000  9.350000000000  1  # C
 110.360000000000  141.035123666700  9.350000000000  1  # C
 109.120000000000  141.751038000000  9.350000000000  1  # C
 109.120000000000  143.182866666700  9.350000000000  1  # C
 107.880000000000  143.898781000000  9.350000000000  1  # C
 107.880000000000  145.330609666700  9.350000000000  1  # C
 106.640000000000  146.046524000000  9.350000000000  1  # C
 106.640000000000  147.478352666700  9.350000000000  1  # C
 105.400000000000  148.194267000000  9.350000000000  1  # C
 105.400000000000  149.626095666700  9.350000000000  1  # C
 104.160000000000  150.342010000000  9.350000000000  1  # C
 104.160000000000  151.773838666700  9.350000000000  1  # C
 102.920000000000  152.489753000000  9.350000000000  1  # C
 102.920000000000  153.921581666700  9.350000000000  1  # C
 101.680000000000  154.637496000000  9.350000000000  1  # C
 101.680000000000  156.069324666700  9.350000000000  1  # C
 100.440000000000  156.785239000000  9.350000000000  1  # C
 100.440000000000  158.217067666700  9.350000000000  1  # C
 99.200000000000  158.932982000000  9.350000000000  1  # C
 99.200000000000  160.364810666700  9.350000000000  1  # C
 97.960000000000  161.080725000000  9.350000000000  1  # C
 97.960000000000  162.512553666700  9.350000000000  1  # C
 96.720000000000  163.228468000000  9.350000000000  1  # C
 96.720000000000  164.660296666700  9.350000000000  1  # C
 95.480000000000  165.376211000000  9.350000000000  1  # C
 95.480000000000  166.808039666700  9.350000000000  1  # C
 94.240000000000  167.523954000000  9.350000000000  1  # C
 94.240000000000  168.955782666700  9.350000000000  1  # C
 93.000000000000  169.671697000000  9.350000000000  1  # C
 93.000000000000  171.103525666700  9.350000000000  1  # C
 91.760000000000  171.819440000000  9.350000000000  1  # C
 91.760000000000  173.251268666700  9.350000000000  1  # C
 90.520000000000  173.967183000000  9.350000000000  1  # C
 90.520000000000  175.399011666700  9.350000000000  1  # C
 89.280000000000  176.114926000000  9.350000000000  1  # C
 89.280000000000  177.546754666700  9.350000000000  1  # C
 88.040000000000  178.262669000000  9.350000000000  1  # C
 88.040000000000  179.694497666700  9.350000000000  1  # C
 86.800000000000  180.410412000000  9.350000000000  1  # C
 86.800000000000  181.842240666700  9.350000000000  1  # C
 111.600000000000  141.751038000000  9.350000000000  1  # C
 111.600000000000  143.182866666700  9.350000000000  1  # C
 110.360000000000  143.898781000000  9.350000000000  1  # C
 110.360000000000  145.330609666700  9.350000000000  1  # C
 109.120000000000  146.046524000000  9.350000000000  1  # C
 109.120000000000  147.478352666700  9.350000000000  1  # C
 107.880000000000  148.194267000000  9.350000000000  1  # C
 107.880000000000  149.626095666700  9.350000000000  1  # C
 106.640000000000  150.342010000000  9.350000000000  1  # C
 106.640000000000  151.773838666700  9.350000000000  1  # C
 105.400000000000  152.489753000000  9.350000000000  1  # C
 105.400000000000  153.921581666700  9.350000000000  1  # C
 104.160000000000  154.637496000000  9.350000000000  1  # C
 104.160000000000  156.069324666700  9.350000000000  1  # C
 102.920000000000  156.785239000000  9.350000000000  1  # C
 102.920000000000  158.217067666700  9.350000000000  1  # C
 101.680000000000  158.932982000000  9.350000000000  1  # C
 101.680000000000  160.364810666700  9.350000000000  1  # C
 100.440000000000  161.080725000000  9.350000000000  1  # C
 100.440000000000  162.512553666700  9.350000000000  1  # C
 99.200000000000  163.228468000000  9.350000000000  1  # C
 99.200000000000  164.660296666700  9.350000000000  1  # C
 97.960000000000  165.376211000000  9.350000000000  1  # C
 97.960000000000  166.808039666700  9.350000000000  1  # C
 96.720000000000  167.523954000000  9.350000000000  1  # C
 96.720000000000  168.955782666700  9.350000000000  1  # C
 95.480000000000  169.671697000000  9.350000000000  1  # C
 95.480000000000  171.103525666700  9.350000000000  1  # C
 94.240000000000  171.819440000000  9.350000000000  1  # C
 94.240000000000  173.251268666700  9.350000000000  1  # C
 93.000000000000  173.967183000000  9.350000000000  1  # C
 93.000000000000  175.399011666700  9.350000000000  1  # C
 91.760000000000  176.114926000000  9.350000000000  1  # C
 91.760000000000  177.546754666700  9.350000000000  1  # C
 90.520000000000  178.262669000000  9.350000000000  1  # C
 90.520000000000  179.694497666700  9.350000000000  1  # C
 89.280000000000  180.410412000000  9.350000000000  1  # C
 89.280000000000  181.842240666700  9.350000000000  1  # C
 88.040000000000  182.558155000000  9.350000000000  1  # C
 111.600000000000  146.046524000000  9.350000000000  1  # C
 111.600000000000  147.478352666700  9.350000000000  1  # C
 110.360000000000  148.194267000000  9.350000000000  1  # C
 110.360000000000  149.626095666700  9.350000000000  1  # C
 109.120000000000  150.342010000000  9.350000000000  1  # C
 109.120000000000  151.773838666700  9.350000000000  1  # C
 107.880000000000  152.489753000000  9.350000000000  1  # C
 107.880000000000  153.921581666700  9.350000000000  1  # C
 106.640000000000  154.637496000000  9.350000000000  1  # C
 106.640000000000  156.069324666700  9.350000000000  1  # C
 105.400000000000  156.785239000000  9.350000000000  1  # C
 105.400000000000  158.217067666700  9.350000000000  1  # C
 104.160000000000  158.932982000000  9.350000000000  1  # C
 104.160000000000  160.364810666700  9.350000000000  1  # C
 102.920000000000  161.080725000000  9.350000000000  1  # C
 102.920000000000  162.512553666700  9.350000000000  1  # C
 101.680000000000  163.228468000000  9.350000000000  1  # C
 101.680000000000  164.660296666700  9.350000000000  1  # C
 100.440000000000  165.376211000000  9.350000000000  1  # C
 100.440000000000  166.808039666700  9.350000000000  1  # C
 99.200000000000  167.523954000000  9.350000000000  1  # C
 99.200000000000  168.955782666700  9.350000000000  1  # C
 97.960000000000  169.671697000000  9.350000000000  1  # C
 97.960000000000  171.103525666700  9.350000000000  1  # C
 96.720000000000  171.819440000000  9.350000000000  1  # C
 96.720000000000  173.251268666700  9.350000000000  1  # C
 95.480000000000  173.967183000000  9.350000000000  1  # C
 95.480000000000  175.399011666700  9.350000000000  1  # C
 94.240000000000  176.114926000000  9.350000000000  1  # C
 94.240000000000  177.546754666700  9.350000000000  1  # C
 93.000000000000  178.262669000000  9.350000000000  1  # C
 93.000000000000  179.694497666700  9.350000000000  1  # C
 91.760000000000  180.410412000000  9.350000000000  1  # C
 91.760000000000  181.842240666700  9.350000000000  1  # C
 90.520000000000  182.558155000000  9.350000000000  1  # C
 90.520000000000  183.989983666700  9.350000000000  1  # C
 111.600000000000  150.342010000000  9.350000000000  1  # C
 111.600000000000  151.773838666700  9.350000000000  1  # C
 110.360000000000  152.489753000000  9.350000000000  1  # C
 110.360000000000  153.921581666700  9.350000000000  1  # C
 109.120000000000  154.637496000000  9.350000000000  1  # C
 109.120000000000  156.069324666700  9.350000000000  1  # C
 107.880000000000  156.785239000000  9.350000000000  1  # C
 107.880000000000  158.217067666700  9.350000000000  1  # C
 106.640000000000  158.932982000000  9.350000000000  1  # C
 106.640000000000  160.364810666700  9.350000000000  1  # C
 105.400000000000  161.080725000000  9.350000000000  1  # C
 105.400000000000  162.512553666700  9.350000000000  1  # C
 104.160000000000  163.228468000000  9.350000000000  1  # C
 104.160000000000  164.660296666700  9.350000000000  1  # C
 102.920000000000  165.376211000000  9.350000000000  1  # C
 102.920000000000  166.808039666700  9.350000000000  1  # C
 101.680000000000  167.523954000000  9.350000000000  1  # C
 101.680000000000  168.955782666700  9.350000000000  1  # C
 100.440000000000  169.671697000000  9.350000000000  1  # C
 100.440000000000  171.103525666700  9.350000000000  1  # C
 99.200000000000  171.819440000000  9.350000000000  1  # C
 99.200000000000  173.251268666700  9.350000000000  1  # C
 97.960000000000  173.967183000000  9.350000000000  1  # C
 97.960000000000  175.399011666700  9.350000000000  1  # C
 96.720000000000  176.114926000000  9.350000000000  1  # C
 96.720000000000  177.546754666700  9.350000000000  1  # C
 95.480000000000  178.262669000000  9.350000000000  1  # C
 95.480000000000  179.694497666700  9.350000000000  1  # C
 94.240000000000  180.410412000000  9.350000000000  1  # C
 94.240000000000  181.842240666700  9.350000000000  1  # C
 93.000000000000  182.558155000000  9.350000000000  1  # C
 93.000000000000  183.989983666700  9.350000000000  1  # C
 91.760000000000  184.705898000000  9.350000000000  1  # C
 111.600000000000  154.637496000000  9.350000000000  1  # C
 111.600000000000  156.069324666700  9.350000000000  1  # C
 110.360000000000  156.785239000000  9.350000000000  1  # C
 110.360000000000  158.217067666700  9.350000000000  1  # C
 109.120000000000  158.932982000000  9.350000000000  1  # C
 109.120000000000  160.364810666700  9.350000000000  1  # C
 107.880000000000  161.080725000000  9.350000000000  1  # C
 107.880000000000  162.512553666700  9.350000000000  1  # C
 106.640000000000  163.228468000000  9.350000000000  1  # C
 106.640000000000  164.660296666700  9.350000000000  1  # C
 105.400000000000  165.376211000000  9.350000000000  1  # C
 105.400000000000  166.808039666700  9.350000000000  1  # C
 104.160000000000  167.523954000000  9.350000000000  1  # C
 104.160000000000  168.955782666700  9.350000000000  1  # C
 102.920000000000  169.671697000000  9.350000000000  1  # C
 102.920000000000  171.103525666700  9.350000000000  1  # C
 101.680000000000  171.819440000000  9.350000000000  1  # C
 101.680000000000  173.251268666700  9.350000000000  1  # C
 100.440000000000  173.967183000000  9.350000000000  1  # C
 100.440000000000  175.399011666700  9.350000000000  1  # C
 99.200000000000  176.114926000000  9.350000000000  1  # C
 99.200000000000  177.546754666700  9.350000000000  1  # C
 97.960000000000  178.262669000000  9.350000000000  1  # C
 97.960000000000  179.694497666700  9.350000000000  1  # C
 96.720000000000  180.410412000000  9.350000000000  1  # C
 96.720000000000  181.842240666700  9.350000000000  1  # C
 95.480000000000  182.558155000000  9.350000000000  1  # C
 95.480000000000  183.989983666700  9.350000000000  1  # C
 94.240000000000  184.705898000000  9.350000000000  1  # C
 94.240000000000  186.137726666700  9.350000000000  1  # C
 111.600000000000  158.932982000000  9.350000000000  1  # C
 111.600000000000  160.364810666700  9.350000000000  1  # C
 110.360000000000  161.080725000000  9.350000000000  1  # C
 110.360000000000  162.512553666700  9.350000000000  1  # C
 109.120000000000  163.228468000000  9.350000000000  1  # C
 109.120000000000  164.660296666700  9.350000000000  1  # C
 107.880000000000  165.376211000000  9.350000000000  1  # C
 107.880000000000  166.808039666700  9.350000000000  1  # C
 106.640000000000  167.523954000000  9.350000000000  1  # C
 106.640000000000  168.955782666700  9.350000000000  1  # C
 105.400000000000  169.671697000000  9.350000000000  1  # C
 105.400000000000  171.103525666700  9.350000000000  1  # C
 104.160000000000  171.819440000000  9.350000000000  1  # C
 104.160000000000  173.251268666700  9.350000000000  1  # C
 102.920000000000  173.967183000000  9.350000000000  1  # C
 102.920000000000  175.399011666700  9.350000000000  1  # C
 101.680000000000  176.114926000000  9.350000000000  1  # C
 101.680000000000  177.546754666700  9.350000000000  1  # C
 100.440000000000  178.262669000000  9.350000000000  1  # C
 100.440000000000  179.694497666700  9.350000000000  1  # C
 99.200000000000  180.410412000000  9.350000000000  1  # C
 99.200000000000  181.842240666700  9.350000000000  1  # C
 97.960000000000  182.558155000000  9.350000000000  1  # C
 97.960000000000  183.989983666700  9.350000000000  1  # C
 96.720000000000  184.705898000000  9.350000000000  1  # C
 96.720000000000  186.137726666700  9.350000000000  1  # C
 95.480000000000  186.853641000000  9.350000000000  1  # C
 111.600000000000  163.228468000000  9.350000000000  1  # C
 111.600000000000  164.660296666700  9.350000000000  1  # C
 110.360000000000  165.376211000000  9.350000000000  1  # C
 110.360000000000  166.808039666700  9.350000000000  1  # C
 109.120000000000  167.523954000000  9.350000000000  1  # C
 109.120000000000  168.955782666700  9.350000000000  1  # C
 107.880000000000  169.671697000000  9.350000000000  1  # C
 107.880000000000  171.103525666700  9.350000000000  1  # C
 106.640000000000  171.819440000000  9.350000000000  1  # C
 106.640000000000  173.251268666700  9.350000000000  1  # C
 105.400000000000  173.967183000000  9.350000000000  1  # C
 105.400000000000  175.399011666700  9.350000000000  1  # C
 104.160000000000  176.114926000000  9.350000000000  1  # C
 104.160000000000  177.546754666700  9.350000000000  1  # C
 102.920000000000  178.262669000000  9.350000000000  1  # C
 102.920000000000  179.694497666700  9.350000000000  1  # C
 101.680000000000  180.410412000000  9.350000000000  1  # C
 101.680000000000  181.842240666700  9.350000000000  1  # C
 100.440000000000  182.558155000000  9.350000000000  1  # C
 100.440000000000  183.989983666700  9.350000000000  1  # C
 99.200000000000  184.705898000000  9.350000000000  1  # C
 99.200000000000  186.137726666700  9.350000000000  1  # C
 97.960000000000  186.853641000000  9.350000000000  1  # C
 97.960000000000  188.285469666700  9.350000000000  1  # C
 111.600000000000  167.523954000000  9.350000000000  1  # C
 111.600000000000  168.955782666700  9.350000000000  1  # C
 110.360000000000  169.671697000000  9.350000000000  1  # C
 110.360000000000  171.103525666700  9.350000000000  1  # C
 109.120000000000  171.819440000000  9.350000000000  1  # C
 109.120000000000  173.251268666700  9.350000000000  1  # C
 107.880000000000  173.967183000000  9.350000000000  1  # C
 107.880000000000  175.399011666700  9.350000000000  1  # C
 106.640000000000  176.114926000000  9.350000000000  1  # C
 106.640000000000  177.546754666700  9.350000000000  1  # C
 105.400000000000  178.262669000000  9.350000000000  1  # C
 105.400000000000  179.694497666700  9.350000000000  1  # C
 104.160000000000  180.410412000000  9.350000000000  1  # C
 104.160000000000  181.842240666700  9.350000000000  1  # C
 102.920000000000  182.558155000000  9.350000000000  1  # C
 102.920000000000  183.989983666700  9.350000000000  1  # C
 101.680000000000  184.705898000000  9.350000000000  1  # C
 101.680000000000  186.137726666700  9.350000000000  1  # C
 100.440000000000  186.853641000000  9.350000000000  1  # C
 100.440000000000  188.285469666700  9.350000000000  1  # C
 99.200000000000  189.001384000000  9.350000000000  1  # C
 111.600000000000  171.819440000000  9.350000000000  1  # C
 111.600000000000  173.251268666700  9.350000000000  1  # C
 110.360000000000  173.967183000000  9.350000000000  1  # C
 110.360000000000  175.399011666700  9.350000000000  1  # C
 109.120000000000  176.114926000000  9.350000000000  1  # C
 109.120000000000  177.546754666700  9.350000000000  1  # C
 107.880000000000  178.262669000000  9.350000000000  1  # C
 107.880000000000  179.694497666700  9.350000000000  1  # C
 106.640000000000  180.410412000000  9.350000000000  1  # C
 106.640000000000  181.842240666700  9.350000000000  1  # C
 105.400000000000  182.558155000000  9.350000000000  1  # C
 105.400000000000  183.989983666700  9.350000000000  1  # C
 104.160000000000  184.705898000000  9.350000000000  1  # C
 104.160000000000  186.137726666700  9.350000000000  1  # C
 102.920000000000  186.853641000000  9.350000000000  1  # C
 102.920000000000  188.285469666700  9.350000000000  1  # C
 101.680000000000  189.001384000000  9.350000000000  1  # C
 101.680000000000  190.433212666700  9.350000000000  1  # C
 111.600000000000  176.114926000000  9.350000000000  1  # C
 111.600000000000  177.546754666700  9.350000000000  1  # C
 110.360000000000  178.262669000000  9.350000000000  1  # C
 110.360000000000  179.694497666700  9.350000000000  1  # C
 109.120000000000  180.410412000000  9.350000000000  1  # C
 109.120000000000  181.842240666700  9.350000000000  1  # C
 107.880000000000  182.558155000000  9.350000000000  1  # C
 107.880000000000  183.989983666700  9.350000000000  1  # C
 106.640000000000  184.705898000000  9.350000000000  1  # C
 106.640000000000  186.137726666700  9.350000000000  1  # C
 105.400000000000  186.853641000000  9.350000000000  1  # C
 105.400000000000  188.285469666700  9.350000000000  1  # C
 104.160000000000  189.001384000000  9.350000000000  1  # C
 104.160000000000  190.433212666700  9.350000000000  1  # C
 102.920000000000  191.149127000000  9.350000000000  1  # C
 111.600000000000  180.410412000000  9.350000000000  1  # C
 111.600000000000  181.842240666700  9.350000000000  1  # C
 110.360000000000  182.558155000000  9.350000000000  1  # C
 110.360000000000  183.989983666700  9.350000000000  1  # C
 109.120000000000  184.705898000000  9.350000000000  1  # C
 109.120000000000  186.137726666700  9.350000000000  1  # C
 107.880000000000  186.853641000000  9.350000000000  1  # C
 107.880000000000  188.285469666700  9.350000000000  1  # C
 106.640000000000  189.001384000000  9.350000000000  1  # C
 106.640000000000  190.433212666700  9.350000000000  1  # C
 105.400000000000  191.149127000000  9.350000000000  1  # C
 105.400000000000  192.580955666700  9.350000000000  1  # C
 111.600000000000  184.705898000000  9.350000000000  1  # C
 111.600000000000  186.137726666700  9.350000000000  1  # C
 110.360000000000  186.853641000000  9.350000000000  1  # C
 110.360000000000  188.285469666700  9.350000000000  1  # C
 109.120000000000  189.001384000000  9.350000000000  1  # C
 109.120000000000  190.433212666700  9.350000000000  1  # C
 107.880000000000  191.149127000000  9.350000000000  1  # C
 107.880000000000  192.580955666700  9.350000000000  1  # C
 106.640000000000  193.296870000000  9.350000000000  1  # C
 111.600000000000  189.001384000000  9.350000000000  1  # C
 111.600000000000  190.433212666700  9.350000000000  1  # C
 110.360000000000  191.149127000000  9.350000000000  1  # C
 110.360000000000  192.580955666700  9.350000000000  1  # C
 109.120000000000  193.296870000000  9.350000000000  1  # C
 109.120000000000  194.728698666700  9.350000000000  1  # C
 111.600000000000  193.296870000000  9.350000000000  1  # C
 111.600000000000  194.728698666700  9.350000000000  1  # C
 110.360000000000  195.444613000000  9.350000000000  1  # C
 1.226227158734  0.739256577791  12.700000000000  1  # C
 2.452454317466  1.478513155683  12.700000000000  1  # C
 1.172024364070  3.602400894829  12.700000000000  1  # C
 2.425352920136  2.910085314102  12.700000000000  1  # C
 1.144922966740  5.033973053248  12.700000000000  1  # C
 3.651580078868  3.649341891993  12.700000000000  1  # C
 4.904908634933  2.957026311266  12.700000000000  1  # C
 2.371150125472  5.773229631140  12.700000000000  1  # C
 3.624478681538  5.080914050412  12.700000000000  1  # C
 1.090720172077  7.897117370286  12.700000000000  1  # C
 2.344048728143  7.204801789559  12.700000000000  1  # C
 1.063618774747  9.328689528705  12.700000000000  1  # C
 6.131135793665  3.696282889157  12.700000000000  1  # C
 4.850705840270  5.820170628304  12.700000000000  1  # C
 6.104034396336  5.127855047576  12.700000000000  1  # C
 3.570275886874  7.944058367450  12.700000000000  1  # C
 4.823604442940  7.251742786723  12.700000000000  1  # C
 2.289845933479  10.067946106597  12.700000000000  1  # C
 3.543174489545  9.375630525869  12.700000000000  1  # C
 1.009415980084  12.191833845743  12.700000000000  1  # C
 2.262744536149  11.499518265015  12.700000000000  1  # C
 0.982314582754  13.623406004162  12.700000000000  1  # C
 7.330261555068  5.867111625468  12.700000000000  1  # C
 8.583590111133  5.174796044740  12.700000000000  1  # C
 6.049831601672  7.990999364614  12.700000000000  1  # C
 7.303160157738  7.298683783886  12.700000000000  1  # C
 4.769401648277  10.114887103760  12.700000000000  1  # C
 6.022730204342  9.422571523033  12.700000000000  1  # C
 3.488971694881  12.238774842907  12.700000000000  1  # C
 4.742300250947  11.546459262179  12.700000000000  1  # C
 2.208541741486  14.362662582053  12.700000000000  1  # C
 3.461870297551  13.670347001326  12.700000000000  1  # C
 0.928111788090  16.486550321200  12.700000000000  1  # C
 2.181440344156  15.794234740472  12.700000000000  1  # C
 0.901010390760  17.918122479619  12.700000000000  1  # C
 9.809817269865  5.914052622631  12.700000000000  1  # C
 8.529387316470  8.037940361778  12.700000000000  1  # C
 9.782715872535  7.345624781050  12.700000000000  1  # C
 7.248957363074  10.161828100924  12.700000000000  1  # C
 8.502285919140  9.469512520197  12.700000000000  1  # C
 5.968527409679  12.285715840071  12.700000000000  1  # C
 7.221855965744  11.593400259343  12.700000000000  1  # C
 4.688097456283  14.409603579217  12.700000000000  1  # C
 5.941426012349  13.717287998490  12.700000000000  1  # C
 3.407667502888  16.533491318364  12.700000000000  1  # C
 4.660996058953  15.841175737636  12.700000000000  1  # C
 2.127237549492  18.657379057510  12.700000000000  1  # C
 3.380566105558  17.965063476783  12.700000000000  1  # C
 0.846807596097  20.781266796657  12.700000000000  1  # C
 2.100136152162  20.088951215929  12.700000000000  1  # C
 0.819706198767  22.212838955076  12.700000000000  1  # C
 11.008943031267  8.084881358942  12.700000000000  1  # C
 12.262271587333  7.392565778214  12.700000000000  1  # C
 9.728513077872  10.208769098088  12.700000000000  1  # C
 10.981841633937  9.516453517361  12.700000000000  1  # C
 8.448083124476  12.332656837235  12.700000000000  1  # C
 9.701411680542  11.640341256507  12.700000000000  1  # C
 7.167653171081  14.456544576381  12.700000000000  1  # C
 8.420981727146  13.764228995654  12.700000000000  1  # C
 5.887223217685  16.580432315528  12.700000000000  1  # C
 7.140551773751  15.888116734800  12.700000000000  1  # C
 4.606793264290  18.704320054674  12.700000000000  1  # C
 5.860121820355  18.012004473947  12.700000000000  1  # C
 3.326363310894  20.828207793821  12.700000000000  1  # C
 4.579691866960  20.135892213093  12.700000000000  1  # C
 2.045933357499  22.952095532967  12.700000000000  1  # C
 3.299261913564  22.259779952239  12.700000000000  1  # C
 0.765503404103  25.075983272113  12.700000000000  1  # C
 2.018831960169  24.383667691386  12.700000000000  1  # C
 0.738402006773  26.507555430532  12.700000000000  1  # C
 13.488498746065  8.131822356106  12.700000000000  1  # C
 12.208068792669  10.255710095252  12.700000000000  1  # C
 13.461397348735  9.563394514525  12.700000000000  1  # C
 10.927638839274  12.379597834399  12.700000000000  1  # C
 12.180967395339  11.687282253671  12.700000000000  1  # C
 9.647208885878  14.503485573545  12.700000000000  1  # C
 10.900537441944  13.811169992818  12.700000000000  1  # C
 8.366778932483  16.627373312692  12.700000000000  1  # C
 9.620107488548  15.935057731964  12.700000000000  1  # C
 7.086348979087  18.751261051838  12.700000000000  1  # C
 8.339677535153  18.058945471110  12.700000000000  1  # C
 5.805919025692  20.875148790984  12.700000000000  1  # C
 7.059247581757  20.182833210257  12.700000000000  1  # C
 4.525489072296  22.999036530131  12.700000000000  1  # C
 5.778817628362  22.306720949403  12.700000000000  1  # C
 3.245059118901  25.122924269277  12.700000000000  1  # C
 4.498387674966  24.430608688550  12.700000000000  1  # C
 1.964629165505  27.246812008424  12.700000000000  1  # C
 3.217957721571  26.554496427696  12.700000000000  1  # C
 0.684199212110  29.370699747570  12.700000000000  1  # C
 1.937527768175  28.678384166843  12.700000000000  1  # C
 0.657097814780  30.802271905989  12.700000000000  1  # C
 14.687624507467  10.302651092416  12.700000000000  1  # C
 15.940953063532  9.610335511689  12.700000000000  1  # C
 13.407194554071  12.426538831563  12.700000000000  1  # C
 14.660523110137  11.734223250835  12.700000000000  1  # C
 12.126764600676  14.550426570709  12.700000000000  1  # C
 13.380093156741  13.858110989981  12.700000000000  1  # C
 10.846334647280  16.674314309855  12.700000000000  1  # C
 12.099663203346  15.981998729128  12.700000000000  1  # C
 9.565904693885  18.798202049002  12.700000000000  1  # C
 10.819233249950  18.105886468274  12.700000000000  1  # C
 8.285474740489  20.922089788148  12.700000000000  1  # C
 9.538803296555  20.229774207421  12.700000000000  1  # C
 7.005044787094  23.045977527295  12.700000000000  1  # C
 8.258373343160  22.353661946567  12.700000000000  1  # C
 5.724614833698  25.169865266441  12.700000000000  1  # C
 6.977943389764  24.477549685714  12.700000000000  1  # C
 4.444184880303  27.293753005588  12.700000000000  1  # C
 5.697513436369  26.601437424860  12.700000000000  1  # C
 3.163754926907  29.417640744734  12.700000000000  1  # C
 4.417083482973  28.725325164007  12.700000000000  1  # C
 1.883324973512  31.541528483881  12.700000000000  1  # C
 3.136653529578  30.849212903153  12.700000000000  1  # C
 0.602895020116  33.665416223027  12.700000000000  1  # C
 1.856223576182  32.973100642300  12.700000000000  1  # C
 0.575793622787  35.096988381446  12.700000000000  1  # C
 17.167180222264  10.349592089580  12.700000000000  1  # C
 15.886750268869  12.473479828726  12.700000000000  1  # C
 17.140078824934  11.781164247999  12.700000000000  1  # C
 14.606320315473  14.597367567873  12.700000000000  1  # C
 15.859648871539  13.905051987145  12.700000000000  1  # C
 13.325890362078  16.721255307019  12.700000000000  1  # C
 14.579218918144  16.028939726292  12.700000000000  1  # C
 12.045460408682  18.845143046166  12.700000000000  1  # C
 13.298788964748  18.152827465438  12.700000000000  1  # C
 10.765030455287  20.969030785312  12.700000000000  1  # C
 12.018359011353  20.276715204585  12.700000000000  1  # C
 9.484600501891  23.092918524459  12.700000000000  1  # C
 10.737929057957  22.400602943731  12.700000000000  1  # C
 8.204170548496  25.216806263605  12.700000000000  1  # C
 9.457499104562  24.524490682878  12.700000000000  1  # C
 6.923740595100  27.340694002752  12.700000000000  1  # C
 8.177069151166  26.648378422024  12.700000000000  1  # C
 5.643310641705  29.464581741898  12.700000000000  1  # C
 6.896639197771  28.772266161171  12.700000000000  1  # C
 4.362880688310  31.588469481045  12.700000000000  1  # C
 5.616209244375  30.896153900317  12.700000000000  1  # C
 3.082450734914  33.712357220191  12.700000000000  1  # C
 4.335779290980  33.020041639463  12.700000000000  1  # C
 1.802020781519  35.836244959337  12.700000000000  1  # C
 3.055349337584  35.143929378610  12.700000000000  1  # C
 0.521590828123  37.960132698484  12.700000000000  1  # C
 1.774919384189  37.267817117756  12.700000000000  1  # C
 0.494489430793  39.391704856903  12.700000000000  1  # C
 18.366305983666  12.520420825890  12.700000000000  1  # C
 19.619634539732  11.828105245163  12.700000000000  1  # C
 17.085876030271  14.644308565037  12.700000000000  1  # C
 18.339204586337  13.951992984309  12.700000000000  1  # C
 15.805446076875  16.768196304183  12.700000000000  1  # C
 17.058774632941  16.075880723456  12.700000000000  1  # C
 14.525016123480  18.892084043330  12.700000000000  1  # C
 15.778344679546  18.199768462602  12.700000000000  1  # C
 13.244586170085  21.015971782476  12.700000000000  1  # C
 14.497914726150  20.323656201749  12.700000000000  1  # C
 11.964156216689  23.139859521623  12.700000000000  1  # C
 13.217484772755  22.447543940895  12.700000000000  1  # C
 10.683726263294  25.263747260769  12.700000000000  1  # C
 11.937054819359  24.571431680042  12.700000000000  1  # C
 9.403296309898  27.387634999916  12.700000000000  1  # C
 10.656624865964  26.695319419188  12.700000000000  1  # C
 8.122866356503  29.511522739062  12.700000000000  1  # C
 9.376194912568  28.819207158335  12.700000000000  1  # C
 6.842436403107  31.635410478208  12.700000000000  1  # C
 8.095764959173  30.943094897481  12.700000000000  1  # C
 5.562006449712  33.759298217355  12.700000000000  1  # C
 6.815335005777  33.066982636627  12.700000000000  1  # C
 4.281576496316  35.883185956501  12.700000000000  1  # C
 5.534905052382  35.190870375774  12.700000000000  1  # C
 3.001146542921  38.007073695648  12.700000000000  1  # C
 4.254475098986  37.314758114920  12.700000000000  1  # C
 1.720716589525  40.130961434794  12.700000000000  1  # C
 2.974045145591  39.438645854067  12.700000000000  1  # C
 0.440286636130  42.254849173941  12.700000000000  1  # C
 1.693615192195  41.562533593213  12.700000000000  1  # C
 0.413185238800  43.686421332360  12.700000000000  1  # C
 20.845861698464  12.567361823054  12.700000000000  1  # C
 19.565431745069  14.691249562201  12.700000000000  1  # C
 20.818760301134  13.998933981473  12.700000000000  1  # C
 18.285001791673  16.815137301347  12.700000000000  1  # C
 19.538330347739  16.122821720620  12.700000000000  1  # C
 17.004571838278  18.939025040494  12.700000000000  1  # C
 18.257900394343  18.246709459766  12.700000000000  1  # C
 15.724141884882  21.062912779640  12.700000000000  1  # C
 16.977470440948  20.370597198913  12.700000000000  1  # C
 14.443711931487  23.186800518787  12.700000000000  1  # C
 15.697040487552  22.494484938059  12.700000000000  1  # C
 13.163281978091  25.310688257933  12.700000000000  1  # C
 14.416610534157  24.618372677206  12.700000000000  1  # C
 11.882852024696  27.434575997079  12.700000000000  1  # C
 13.136180580761  26.742260416352  12.700000000000  1  # C
 10.602422071300  29.558463736226  12.700000000000  1  # C
 11.855750627366  28.866148155498  12.700000000000  1  # C
 9.321992117905  31.682351475372  12.700000000000  1  # C
 10.575320673970  30.990035894645  12.700000000000  1  # C
 8.041562164509  33.806239214519  12.700000000000  1  # C
 9.294890720575  33.113923633791  12.700000000000  1  # C
 6.761132211114  35.930126953665  12.700000000000  1  # C
 8.014460767179  35.237811372938  12.700000000000  1  # C
 5.480702257718  38.054014692812  12.700000000000  1  # C
 6.734030813784  37.361699112084  12.700000000000  1  # C
 4.200272304323  40.177902431958  12.700000000000  1  # C
 5.453600860388  39.485586851231  12.700000000000  1  # C
 2.919842350927  42.301790171105  12.700000000000  1  # C
 4.173170906993  41.609474590377  12.700000000000  1  # C
 1.639412397532  44.425677910251  12.700000000000  1  # C
 2.892740953597  43.733362329524  12.700000000000  1  # C
 0.358982444136  46.549565649398  12.700000000000  1  # C
 1.612311000202  45.857250068670  12.700000000000  1  # C
 0.331881046806  47.981137807817  12.700000000000  1  # C
 22.044987459866  14.738190559365  12.700000000000  1  # C
 23.298316015932  14.045874978637  12.700000000000  1  # C
 20.764557506471  16.862078298511  12.700000000000  1  # C
 22.017886062536  16.169762717784  12.700000000000  1  # C
 19.484127553075  18.985966037658  12.700000000000  1  # C
 20.737456109141  18.293650456930  12.700000000000  1  # C
 18.203697599680  21.109853776804  12.700000000000  1  # C
 19.457026155745  20.417538196077  12.700000000000  1  # C
 16.923267646284  23.233741515950  12.700000000000  1  # C
 18.176596202350  22.541425935223  12.700000000000  1  # C
 15.642837692889  25.357629255097  12.700000000000  1  # C
 16.896166248954  24.665313674369  12.700000000000  1  # C
 14.362407739493  27.481516994243  12.700000000000  1  # C
 15.615736295559  26.789201413516  12.700000000000  1  # C
 13.081977786098  29.605404733390  12.700000000000  1  # C
 14.335306342163  28.913089152662  12.700000000000  1  # C
 11.801547832702  31.729292472536  12.700000000000  1  # C
 13.054876388768  31.036976891809  12.700000000000  1  # C
 10.521117879307  33.853180211683  12.700000000000  1  # C
 11.774446435372  33.160864630955  12.700000000000  1  # C
 9.240687925911  35.977067950829  12.700000000000  1  # C
 10.494016481977  35.284752370102  12.700000000000  1  # C
 7.960257972516  38.100955689976  12.700000000000  1  # C
 9.213586528581  37.408640109248  12.700000000000  1  # C
 6.679828019120  40.224843429122  12.700000000000  1  # C
 7.933156575186  39.532527848395  12.700000000000  1  # C
 5.399398065725  42.348731168269  12.700000000000  1  # C
 6.652726621790  41.656415587541  12.700000000000  1  # C
 4.118968112329  44.472618907415  12.700000000000  1  # C
 5.372296668395  43.780303326688  12.700000000000  1  # C
 2.838538158934  46.596506646561  12.700000000000  1  # C
 4.091866714999  45.904191065834  12.700000000000  1  # C
 1.558108205538  48.720394385708  12.700000000000  1  # C
 2.811436761604  48.028078804980  12.700000000000  1  # C
 0.277678252143  50.844282124854  12.700000000000  1  # C
 1.531006808208  50.151966544127  12.700000000000  1  # C
 0.250576854813  52.275854283273  12.700000000000  1  # C
 24.524543174664  14.785131556529  12.700000000000  1  # C
 23.244113221268  16.909019295675  12.700000000000  1  # C
 24.497441777334  16.216703714948  12.700000000000  1  # C
 21.963683267873  19.032907034821  12.700000000000  1  # C
 23.217011823938  18.340591454094  12.700000000000  1  # C
 20.683253314477  21.156794773968  12.700000000000  1  # C
 21.936581870543  20.464479193240  12.700000000000  1  # C
 19.402823361082  23.280682513114  12.700000000000  1  # C
 20.656151917147  22.588366932387  12.700000000000  1  # C
 18.122393407686  25.404570252261  12.700000000000  1  # C
 19.375721963752  24.712254671533  12.700000000000  1  # C
 16.841963454291  27.528457991407  12.700000000000  1  # C
 18.095292010356  26.836142410680  12.700000000000  1  # C
 15.561533500895  29.652345730554  12.700000000000  1  # C
 16.814862056961  28.960030149826  12.700000000000  1  # C
 14.281103547500  31.776233469700  12.700000000000  1  # C
 15.534432103565  31.083917888973  12.700000000000  1  # C
 13.000673594104  33.900121208847  12.700000000000  1  # C
 14.254002150170  33.207805628119  12.700000000000  1  # C
 11.720243640709  36.024008947993  12.700000000000  1  # C
 12.973572196774  35.331693367266  12.700000000000  1  # C
 10.439813687313  38.147896687140  12.700000000000  1  # C
 11.693142243379  37.455581106412  12.700000000000  1  # C
 9.159383733918  40.271784426286  12.700000000000  1  # C
 10.412712289983  39.579468845559  12.700000000000  1  # C
 7.878953780522  42.395672165432  12.700000000000  1  # C
 9.132282336588  41.703356584705  12.700000000000  1  # C
 6.598523827127  44.519559904579  12.700000000000  1  # C
 7.851852383192  43.827244323851  12.700000000000  1  # C
 5.318093873731  46.643447643725  12.700000000000  1  # C
 6.571422429797  45.951132062998  12.700000000000  1  # C
 4.037663920336  48.767335382872  12.700000000000  1  # C
 5.290992476402  48.075019802144  12.700000000000  1  # C
 2.757233966940  50.891223122018  12.700000000000  1  # C
 4.010562523006  50.198907541291  12.700000000000  1  # C
 1.476804013545  53.015110861165  12.700000000000  1  # C
 2.730132569611  52.322795280437  12.700000000000  1  # C
 0.196374060149  55.138998600311  12.700000000000  1  # C
 1.449702616215  54.446683019584  12.700000000000  1  # C
 0.169272662820  56.570570758730  12.700000000000  1  # C
 25.723668936066  16.955960292839  12.700000000000  1  # C
 26.976997492131  16.263644712111  12.700000000000  1  # C
 24.443238982670  19.079848031985  12.700000000000  1  # C
 25.696567538736  18.387532451258  12.700000000000  1  # C
 23.162809029275  21.203735771132  12.700000000000  1  # C
 24.416137585340  20.511420190404  12.700000000000  1  # C
 21.882379075879  23.327623510278  12.700000000000  1  # C
 23.135707631945  22.635307929551  12.700000000000  1  # C
 20.601949122484  25.451511249425  12.700000000000  1  # C
 21.855277678549  24.759195668697  12.700000000000  1  # C
 19.321519169088  27.575398988571  12.700000000000  1  # C
 20.574847725154  26.883083407844  12.700000000000  1  # C
 18.041089215693  29.699286727718  12.700000000000  1  # C
 19.294417771758  29.006971146990  12.700000000000  1  # C
 16.760659262297  31.823174466864  12.700000000000  1  # C
 18.013987818363  31.130858886137  12.700000000000  1  # C
 15.480229308902  33.947062206011  12.700000000000  1  # C
 16.733557864967  33.254746625283  12.700000000000  1  # C
 14.199799355506  36.070949945157  12.700000000000  1  # C
 15.453127911572  35.378634364430  12.700000000000  1  # C
 12.919369402111  38.194837684303  12.700000000000  1  # C
 14.172697958177  37.502522103576  12.700000000000  1  # C
 11.638939448715  40.318725423450  12.700000000000  1  # C
 12.892268004781  39.626409842722  12.700000000000  1  # C
 10.358509495320  42.442613162596  12.700000000000  1  # C
 11.611838051386  41.750297581869  12.700000000000  1  # C
 9.078079541924  44.566500901743  12.700000000000  1  # C
 10.331408097990  43.874185321015  12.700000000000  1  # C
 7.797649588529  46.690388640889  12.700000000000  1  # C
 9.050978144595  45.998073060162  12.700000000000  1  # C
 6.517219635133  48.814276380036  12.700000000000  1  # C
 7.770548191199  48.121960799308  12.700000000000  1  # C
 5.236789681738  50.938164119182  12.700000000000  1  # C
 6.490118237804  50.245848538455  12.700000000000  1  # C
 3.956359728343  53.062051858329  12.700000000000  1  # C
 5.209688284408  52.369736277601  12.700000000000  1  # C
 2.675929774947  55.185939597475  12.700000000000  1  # C
 3.929258331013  54.493624016748  12.700000000000  1  # C
 1.395499821552  57.309827336622  12.700000000000  1  # C
 2.648828377617  56.617511755894  12.700000000000  1  # C
 0.115069868156  59.433715075768  12.700000000000  1  # C
 1.368398424222  58.741399495041  12.700000000000  1  # C
 0.087968470826  60.865287234187  12.700000000000  1  # C
 28.203224650863  17.002901290003  12.700000000000  1  # C
 26.922794697468  19.126789029149  12.700000000000  1  # C
 28.176123253533  18.434473448422  12.700000000000  1  # C
 25.642364744072  21.250676768296  12.700000000000  1  # C
 26.895693300138  20.558361187568  12.700000000000  1  # C
 24.361934790677  23.374564507442  12.700000000000  1  # C
 25.615263346742  22.682248926715  12.700000000000  1  # C
 23.081504837281  25.498452246589  12.700000000000  1  # C
 24.334833393347  24.806136665861  12.700000000000  1  # C
 21.801074883886  27.622339985735  12.700000000000  1  # C
 23.054403439951  26.930024405008  12.700000000000  1  # C
 20.520644930490  29.746227724882  12.700000000000  1  # C
 21.773973486556  29.053912144154  12.700000000000  1  # C
 19.240214977095  31.870115464028  12.700000000000  1  # C
 20.493543533161  31.177799883301  12.700000000000  1  # C
 17.959785023699  33.994003203175  12.700000000000  1  # C
 19.213113579765  33.301687622447  12.700000000000  1  # C
 16.679355070304  36.117890942321  12.700000000000  1  # C
 17.932683626370  35.425575361593  12.700000000000  1  # C
 15.398925116908  38.241778681467  12.700000000000  1  # C
 16.652253672974  37.549463100740  12.700000000000  1  # C
 14.118495163513  40.365666420614  12.700000000000  1  # C
 15.371823719579  39.673350839886  12.700000000000  1  # C
 12.838065210117  42.489554159760  12.700000000000  1  # C
 14.091393766183  41.797238579033  12.700000000000  1  # C
 11.557635256722  44.613441898907  12.700000000000  1  # C
 12.810963812788  43.921126318179  12.700000000000  1  # C
 10.277205303327  46.737329638053  12.700000000000  1  # C
 11.530533859392  46.045014057326  12.700000000000  1  # C
 8.996775349931  48.861217377200  12.700000000000  1  # C
 10.250103905997  48.168901796472  12.700000000000  1  # C
 7.716345396536  50.985105116346  12.700000000000  1  # C
 8.969673952601  50.292789535619  12.700000000000  1  # C
 6.435915443140  53.108992855493  12.700000000000  1  # C
 7.689243999206  52.416677274765  12.700000000000  1  # C
 5.155485489745  55.232880594639  12.700000000000  1  # C
 6.408814045810  54.540565013912  12.700000000000  1  # C
 3.875055536349  57.356768333786  12.700000000000  1  # C
 5.128384092415  56.664452753058  12.700000000000  1  # C
 2.594625582954  59.480656072932  12.700000000000  1  # C
 3.847954139019  58.788340492204  12.700000000000  1  # C
 1.314195629558  61.604543812078  12.700000000000  1  # C
 2.567524185624  60.912228231351  12.700000000000  1  # C
 0.033765676163  63.728431551225  12.700000000000  1  # C
 1.287094232228  63.036115970497  12.700000000000  1  # C
 0.006664278833  65.160003709644  12.700000000000  1  # C
 29.402350412265  19.173730026313  12.700000000000  1  # C
 30.655678968331  18.481414445586  12.700000000000  1  # C
 28.121920458870  21.297617765460  12.700000000000  1  # C
 29.375249014936  20.605302184732  12.700000000000  1  # C
 26.841490505474  23.421505504606  12.700000000000  1  # C
 28.094819061540  22.729189923879  12.700000000000  1  # C
 25.561060552079  25.545393243753  12.700000000000  1  # C
 26.814389108145  24.853077663025  12.700000000000  1  # C
 24.280630598683  27.669280982899  12.700000000000  1  # C
 25.533959154749  26.976965402172  12.700000000000  1  # C
 23.000200645288  29.793168722046  12.700000000000  1  # C
 24.253529201354  29.100853141318  12.700000000000  1  # C
 21.719770691892  31.917056461192  12.700000000000  1  # C
 22.973099247958  31.224740880464  12.700000000000  1  # C
 20.439340738497  34.040944200338  12.700000000000  1  # C
 21.692669294563  33.348628619611  12.700000000000  1  # C
 19.158910785102  36.164831939485  12.700000000000  1  # C
 20.412239341167  35.472516358757  12.700000000000  1  # C
 17.878480831706  38.288719678631  12.700000000000  1  # C
 19.131809387772  37.596404097904  12.700000000000  1  # C
 16.598050878311  40.412607417778  12.700000000000  1  # C
 17.851379434376  39.720291837050  12.700000000000  1  # C
 15.317620924915  42.536495156924  12.700000000000  1  # C
 16.570949480981  41.844179576197  12.700000000000  1  # C
 14.037190971520  44.660382896071  12.700000000000  1  # C
 15.290519527585  43.968067315343  12.700000000000  1  # C
 12.756761018124  46.784270635217  12.700000000000  1  # C
 14.010089574190  46.091955054490  12.700000000000  1  # C
 11.476331064729  48.908158374364  12.700000000000  1  # C
 12.729659620794  48.215842793636  12.700000000000  1  # C
 10.195901111333  51.032046113510  12.700000000000  1  # C
 11.449229667399  50.339730532783  12.700000000000  1  # C
 8.915471157938  53.155933852657  12.700000000000  1  # C
 10.168799714003  52.463618271929  12.700000000000  1  # C
 7.635041204542  55.279821591803  12.700000000000  1  # C
 8.888369760608  54.587506011075  12.700000000000  1  # C
 6.354611251147  57.403709330949  12.700000000000  1  # C
 7.607939807212  56.711393750222  12.700000000000  1  # C
 5.074181297751  59.527597070096  12.700000000000  1  # C
 6.327509853817  58.835281489368  12.700000000000  1  # C
 3.793751344356  61.651484809242  12.700000000000  1  # C
 5.047079900421  60.959169228515  12.700000000000  1  # C
 2.513321390960  63.775372548389  12.700000000000  1  # C
 3.766649947026  63.083056967661  12.700000000000  1  # C
 1.232891437565  65.899260287535  12.700000000000  1  # C
 2.486219993630  65.206944706808  12.700000000000  1  # C
 -0.047538515831  68.023148026682  12.700000000000  1  # C
 1.205790040235  67.330832445954  12.700000000000  1  # C
 -0.074639913161  69.454720185101  12.700000000000  1  # C
 31.881906127063  19.220671023477  12.700000000000  1  # C
 30.601476173667  21.344558762624  12.700000000000  1  # C
 31.854804729733  20.652243181896  12.700000000000  1  # C
 29.321046220272  23.468446501770  12.700000000000  1  # C
 30.574374776338  22.776130921043  12.700000000000  1  # C
 28.040616266876  25.592334240917  12.700000000000  1  # C
 29.293944822942  24.900018660189  12.700000000000  1  # C
 26.760186313481  27.716221980063  12.700000000000  1  # C
 28.013514869547  27.023906399335  12.700000000000  1  # C
 25.479756360086  29.840109719209  12.700000000000  1  # C
 26.733084916151  29.147794138482  12.700000000000  1  # C
 24.199326406690  31.963997458356  12.700000000000  1  # C
 25.452654962756  31.271681877628  12.700000000000  1  # C
 22.918896453295  34.087885197502  12.700000000000  1  # C
 24.172225009360  33.395569616775  12.700000000000  1  # C
 21.638466499899  36.211772936649  12.700000000000  1  # C
 22.891795055965  35.519457355921  12.700000000000  1  # C
 20.358036546504  38.335660675795  12.700000000000  1  # C
 21.611365102569  37.643345095068  12.700000000000  1  # C
 19.077606593108  40.459548414942  12.700000000000  1  # C
 20.330935149174  39.767232834214  12.700000000000  1  # C
 17.797176639713  42.583436154088  12.700000000000  1  # C
 19.050505195778  41.891120573361  12.700000000000  1  # C
 16.516746686317  44.707323893235  12.700000000000  1  # C
 17.770075242383  44.015008312507  12.700000000000  1  # C
 15.236316732922  46.831211632381  12.700000000000  1  # C
 16.489645288987  46.138896051654  12.700000000000  1  # C
 13.955886779526  48.955099371528  12.700000000000  1  # C
 15.209215335592  48.262783790800  12.700000000000  1  # C
 12.675456826131  51.078987110674  12.700000000000  1  # C
 13.928785382196  50.386671529946  12.700000000000  1  # C
 11.395026872735  53.202874849820  12.700000000000  1  # C
 12.648355428801  52.510559269093  12.700000000000  1  # C
 10.114596919340  55.326762588967  12.700000000000  1  # C
 11.367925475405  54.634447008239  12.700000000000  1  # C
 8.834166965944  57.450650328113  12.700000000000  1  # C
 10.087495522010  56.758334747386  12.700000000000  1  # C
 7.553737012549  59.574538067260  12.700000000000  1  # C
 8.807065568614  58.882222486532  12.700000000000  1  # C
 6.273307059153  61.698425806406  12.700000000000  1  # C
 7.526635615219  61.006110225679  12.700000000000  1  # C
 4.992877105758  63.822313545553  12.700000000000  1  # C
 6.246205661823  63.129997964825  12.700000000000  1  # C
 3.712447152362  65.946201284699  12.700000000000  1  # C
 4.965775708428  65.253885703972  12.700000000000  1  # C
 2.432017198967  68.070089023846  12.700000000000  1  # C
 3.685345755032  67.377773443118  12.700000000000  1  # C
 1.151587245571  70.193976762992  12.700000000000  1  # C
 2.404915801637  69.501661182265  12.700000000000  1  # C
 -0.128842707824  72.317864502139  12.700000000000  1  # C
 1.124485848241  71.625548921411  12.700000000000  1  # C
 -0.155944105154  73.749436660557  12.700000000000  1  # C
 33.081031888465  21.391499759788  12.700000000000  1  # C
 34.334360444531  20.699184179060  12.700000000000  1  # C
 31.800601935070  23.515387498934  12.700000000000  1  # C
 33.053930491135  22.823071918206  12.700000000000  1  # C
 30.520171981674  25.639275238080  12.700000000000  1  # C
 31.773500537740  24.946959657353  12.700000000000  1  # C
 29.239742028279  27.763162977227  12.700000000000  1  # C
 30.493070584344  27.070847396499  12.700000000000  1  # C
 27.959312074883  29.887050716373  12.700000000000  1  # C
 29.212640630949  29.194735135646  12.700000000000  1  # C
 26.678882121488  32.010938455520  12.700000000000  1  # C
 27.932210677553  31.318622874792  12.700000000000  1  # C
 25.398452168092  34.134826194666  12.700000000000  1  # C
 26.651780724158  33.442510613939  12.700000000000  1  # C
 24.118022214697  36.258713933813  12.700000000000  1  # C
 25.371350770762  35.566398353085  12.700000000000  1  # C
 22.837592261301  38.382601672959  12.700000000000  1  # C
 24.090920817367  37.690286092232  12.700000000000  1  # C
 21.557162307906  40.506489412106  12.700000000000  1  # C
 22.810490863971  39.814173831378  12.700000000000  1  # C
 20.276732354510  42.630377151252  12.700000000000  1  # C
 21.530060910576  41.938061570525  12.700000000000  1  # C
 18.996302401115  44.754264890399  12.700000000000  1  # C
 20.249630957180  44.061949309671  12.700000000000  1  # C
 17.715872447719  46.878152629545  12.700000000000  1  # C
 18.969201003785  46.185837048817  12.700000000000  1  # C
 16.435442494324  49.002040368691  12.700000000000  1  # C
 17.688771050389  48.309724787964  12.700000000000  1  # C
 15.155012540928  51.125928107838  12.700000000000  1  # C
 16.408341096994  50.433612527110  12.700000000000  1  # C
 13.874582587533  53.249815846984  12.700000000000  1  # C
 15.127911143598  52.557500266257  12.700000000000  1  # C
 12.594152634137  55.373703586131  12.700000000000  1  # C
 13.847481190203  54.681388005403  12.700000000000  1  # C
 11.313722680742  57.497591325277  12.700000000000  1  # C
 12.567051236807  56.805275744550  12.700000000000  1  # C
 10.033292727346  59.621479064424  12.700000000000  1  # C
 11.286621283412  58.929163483696  12.700000000000  1  # C
 8.752862773951  61.745366803570  12.700000000000  1  # C
 10.006191330016  61.053051222843  12.700000000000  1  # C
 7.472432820555  63.869254542717  12.700000000000  1  # C
 8.725761376621  63.176938961989  12.700000000000  1  # C
 6.192002867160  65.993142281863  12.700000000000  1  # C
 7.445331423225  65.300826701136  12.700000000000  1  # C
 4.911572913764  68.117030021010  12.700000000000  1  # C
 6.164901469830  67.424714440282  12.700000000000  1  # C
 3.631142960369  70.240917760156  12.700000000000  1  # C
 4.884471516435  69.548602179428  12.700000000000  1  # C
 2.350713006973  72.364805499302  12.700000000000  1  # C
 3.604041563039  71.672489918575  12.700000000000  1  # C
 1.070283053578  74.488693238449  12.700000000000  1  # C
 2.323611609644  73.796377657721  12.700000000000  1  # C
 -0.210146899818  76.612580977595  12.700000000000  1  # C
 1.043181656248  75.920265396868  12.700000000000  1  # C
 -0.237248297147  78.044153136014  12.700000000000  1  # C
 35.560587603263  21.438440756951  12.700000000000  1  # C
 34.280157649867  23.562328496098  12.700000000000  1  # C
 35.533486205933  22.870012915370  12.700000000000  1  # C
 32.999727696472  25.686216235244  12.700000000000  1  # C
 34.253056252537  24.993900654517  12.700000000000  1  # C
 31.719297743076  27.810103974391  12.700000000000  1  # C
 32.972626299142  27.117788393663  12.700000000000  1  # C
 30.438867789681  29.933991713537  12.700000000000  1  # C
 31.692196345746  29.241676132810  12.700000000000  1  # C
 29.158437836285  32.057879452684  12.700000000000  1  # C
 30.411766392351  31.365563871956  12.700000000000  1  # C
 27.878007882890  34.181767191830  12.700000000000  1  # C
 29.131336438955  33.489451611103  12.700000000000  1  # C
 26.597577929494  36.305654930977  12.700000000000  1  # C
 27.850906485560  35.613339350249  12.700000000000  1  # C
 25.317147976099  38.429542670123  12.700000000000  1  # C
 26.570476532164  37.737227089396  12.700000000000  1  # C
 24.036718022703  40.553430409270  12.700000000000  1  # C
 25.290046578769  39.861114828542  12.700000000000  1  # C
 22.756288069308  42.677318148416  12.700000000000  1  # C
 24.009616625373  41.985002567688  12.700000000000  1  # C
 21.475858115912  44.801205887562  12.700000000000  1  # C
 22.729186671978  44.108890306835  12.700000000000  1  # C
 20.195428162517  46.925093626709  12.700000000000  1  # C
 21.448756718582  46.232778045981  12.700000000000  1  # C
 18.914998209121  49.048981365855  12.700000000000  1  # C
 20.168326765187  48.356665785128  12.700000000000  1  # C
 17.634568255726  51.172869105002  12.700000000000  1  # C
 18.887896811791  50.480553524274  12.700000000000  1  # C
 16.354138302330  53.296756844148  12.700000000000  1  # C
 17.607466858396  52.604441263421  12.700000000000  1  # C
 15.073708348935  55.420644583295  12.700000000000  1  # C
 16.327036905000  54.728329002567  12.700000000000  1  # C
 13.793278395539  57.544532322441  12.700000000000  1  # C
 15.046606951605  56.852216741714  12.700000000000  1  # C
 12.512848442144  59.668420061588  12.700000000000  1  # C
 13.766176998209  58.976104480860  12.700000000000  1  # C
 11.232418488748  61.792307800734  12.700000000000  1  # C
 12.485747044814  61.099992220007  12.700000000000  1  # C
 9.951988535353  63.916195539881  12.700000000000  1  # C
 11.205317091419  63.223879959153  12.700000000000  1  # C
 8.671558581957  66.040083279027  12.700000000000  1  # C
 9.924887138023  65.347767698299  12.700000000000  1  # C
 7.391128628562  68.163971018173  12.700000000000  1  # C
 8.644457184628  67.471655437446  12.700000000000  1  # C
 6.110698675166  70.287858757320  12.700000000000  1  # C
 7.364027231232  69.595543176592  12.700000000000  1  # C
 4.830268721771  72.411746496466  12.700000000000  1  # C
 6.083597277837  71.719430915739  12.700000000000  1  # C
 3.549838768375  74.535634235613  12.700000000000  1  # C
 4.803167324441  73.843318654885  12.700000000000  1  # C
 2.269408814980  76.659521974759  12.700000000000  1  # C
 3.522737371046  75.967206394032  12.700000000000  1  # C
 0.988978861585  78.783409713906  12.700000000000  1  # C
 2.242307417650  78.091094133178  12.700000000000  1  # C
 -0.291451091811  80.907297453052  12.700000000000  1  # C
 0.961877464255  80.214981872325  12.700000000000  1  # C
 -0.318552489141  82.338869611471  12.700000000000  1  # C
 36.759713364665  23.609269493262  12.700000000000  1  # C
 38.013041920730  22.916953912534  12.700000000000  1  # C
 35.479283411269  25.733157232408  12.700000000000  1  # C
 36.732611967335  25.040841651681  12.700000000000  1  # C
 34.198853457874  27.857044971555  12.700000000000  1  # C
 35.452182013939  27.164729390827  12.700000000000  1  # C
 32.918423504478  29.980932710701  12.700000000000  1  # C
 34.171752060544  29.288617129974  12.700000000000  1  # C
 31.637993551083  32.104820449848  12.700000000000  1  # C
 32.891322107148  31.412504869120  12.700000000000  1  # C
 30.357563597687  34.228708188994  12.700000000000  1  # C
 31.610892153753  33.536392608267  12.700000000000  1  # C
 29.077133644292  36.352595928141  12.700000000000  1  # C
 30.330462200357  35.660280347413  12.700000000000  1  # C
 27.796703690896  38.476483667287  12.700000000000  1  # C
 29.050032246962  37.784168086559  12.700000000000  1  # C
 26.516273737501  40.600371406433  12.700000000000  1  # C
 27.769602293566  39.908055825706  12.700000000000  1  # C
 25.235843784105  42.724259145580  12.700000000000  1  # C
 26.489172340171  42.031943564852  12.700000000000  1  # C
 23.955413830710  44.848146884726  12.700000000000  1  # C
 25.208742386775  44.155831303999  12.700000000000  1  # C
 22.674983877314  46.972034623873  12.700000000000  1  # C
 23.928312433380  46.279719043145  12.700000000000  1  # C
 21.394553923919  49.095922363019  12.700000000000  1  # C
 22.647882479984  48.403606782292  12.700000000000  1  # C
 20.114123970523  51.219810102166  12.700000000000  1  # C
 21.367452526589  50.527494521438  12.700000000000  1  # C
 18.833694017128  53.343697841312  12.700000000000  1  # C
 20.087022573194  52.651382260585  12.700000000000  1  # C
 17.553264063732  55.467585580459  12.700000000000  1  # C
 18.806592619798  54.775269999731  12.700000000000  1  # C
 16.272834110337  57.591473319605  12.700000000000  1  # C
 17.526162666403  56.899157738878  12.700000000000  1  # C
 14.992404156941  59.715361058752  12.700000000000  1  # C
 16.245732713007  59.023045478024  12.700000000000  1  # C
 13.711974203546  61.839248797898  12.700000000000  1  # C
 14.965302759612  61.146933217171  12.700000000000  1  # C
 12.431544250150  63.963136537044  12.700000000000  1  # C
 13.684872806216  63.270820956317  12.700000000000  1  # C
 11.151114296755  66.087024276191  12.700000000000  1  # C
 12.404442852821  65.394708695463  12.700000000000  1  # C
 9.870684343360  68.210912015337  12.700000000000  1  # C
 11.124012899425  67.518596434610  12.700000000000  1  # C
 8.590254389964  70.334799754484  12.700000000000  1  # C
 9.843582946030  69.642484173756  12.700000000000  1  # C
 7.309824436569  72.458687493630  12.700000000000  1  # C
 8.563152992634  71.766371912903  12.700000000000  1  # C
 6.029394483173  74.582575232777  12.700000000000  1  # C
 7.282723039239  73.890259652049  12.700000000000  1  # C
 4.748964529778  76.706462971923  12.700000000000  1  # C
 6.002293085843  76.014147391196  12.700000000000  1  # C
 3.468534576382  78.830350711070  12.700000000000  1  # C
 4.721863132448  78.138035130342  12.700000000000  1  # C
 2.188104622987  80.954238450216  12.700000000000  1  # C
 3.441433179052  80.261922869489  12.700000000000  1  # C
 0.907674669591  83.078126189363  12.700000000000  1  # C
 2.161003225657  82.385810608635  12.700000000000  1  # C
 -0.372755283804  85.202013928509  12.700000000000  1  # C
 0.880573272261  84.509698347782  12.700000000000  1  # C
 -0.399856681134  86.633586086928  12.700000000000  1  # C
 39.239269079462  23.656210490426  12.700000000000  1  # C
 37.958839126067  25.780098229572  12.700000000000  1  # C
 39.212167682132  25.087782648845  12.700000000000  1  # C
 36.678409172671  27.903985968719  12.700000000000  1  # C
 37.931737728737  27.211670387991  12.700000000000  1  # C
 35.397979219276  30.027873707865  12.700000000000  1  # C
 36.651307775341  29.335558127138  12.700000000000  1  # C
 34.117549265880  32.151761447012  12.700000000000  1  # C
 35.370877821946  31.459445866284  12.700000000000  1  # C
 32.837119312485  34.275649186158  12.700000000000  1  # C
 34.090447868550  33.583333605431  12.700000000000  1  # C
 31.556689359089  36.399536925304  12.700000000000  1  # C
 32.810017915155  35.707221344577  12.700000000000  1  # C
 30.276259405694  38.523424664451  12.700000000000  1  # C
 31.529587961759  37.831109083723  12.700000000000  1  # C
 28.995829452298  40.647312403597  12.700000000000  1  # C
 30.249158008364  39.954996822870  12.700000000000  1  # C
 27.715399498903  42.771200142744  12.700000000000  1  # C
 28.968728054968  42.078884562016  12.700000000000  1  # C
 26.434969545507  44.895087881890  12.700000000000  1  # C
 27.688298101573  44.202772301163  12.700000000000  1  # C
 25.154539592112  47.018975621037  12.700000000000  1  # C
 26.407868148178  46.326660040309  12.700000000000  1  # C
 23.874109638716  49.142863360183  12.700000000000  1  # C
 25.127438194782  48.450547779456  12.700000000000  1  # C
 22.593679685321  51.266751099330  12.700000000000  1  # C
 23.847008241387  50.574435518602  12.700000000000  1  # C
 21.313249731925  53.390638838476  12.700000000000  1  # C
 22.566578287991  52.698323257749  12.700000000000  1  # C
 20.032819778530  55.514526577623  12.700000000000  1  # C
 21.286148334596  54.822210996895  12.700000000000  1  # C
 18.752389825134  57.638414316769  12.700000000000  1  # C
 20.005718381200  56.946098736041  12.700000000000  1  # C
 17.471959871739  59.762302055915  12.700000000000  1  # C
 18.725288427805  59.069986475188  12.700000000000  1  # C
 16.191529918344  61.886189795062  12.700000000000  1  # C
 17.444858474409  61.193874214334  12.700000000000  1  # C
 14.911099964948  64.010077534208  12.700000000000  1  # C
 16.164428521014  63.317761953481  12.700000000000  1  # C
 13.630670011553  66.133965273355  12.700000000000  1  # C
 14.883998567618  65.441649692627  12.700000000000  1  # C
 12.350240058157  68.257853012501  12.700000000000  1  # C
 13.603568614223  67.565537431774  12.700000000000  1  # C
 11.069810104762  70.381740751648  12.700000000000  1  # C
 12.323138660827  69.689425170920  12.700000000000  1  # C
 9.789380151366  72.505628490794  12.700000000000  1  # C
 11.042708707432  71.813312910067  12.700000000000  1  # C
 8.508950197971  74.629516229941  12.700000000000  1  # C
 9.762278754036  73.937200649213  12.700000000000  1  # C
 7.228520244575  76.753403969087  12.700000000000  1  # C
 8.481848800641  76.061088388360  12.700000000000  1  # C
 5.948090291180  78.877291708234  12.700000000000  1  # C
 7.201418847245  78.184976127506  12.700000000000  1  # C
 4.667660337784  81.001179447380  12.700000000000  1  # C
 5.920988893850  80.308863866653  12.700000000000  1  # C
 3.387230384389  83.125067186526  12.700000000000  1  # C
 4.640558940454  82.432751605799  12.700000000000  1  # C
 2.106800430993  85.248954925673  12.700000000000  1  # C
 3.360128987059  84.556639344945  12.700000000000  1  # C
 0.826370477598  87.372842664819  12.700000000000  1  # C
 2.079699033663  86.680527084092  12.700000000000  1  # C
 -0.454059475798  89.496730403966  12.700000000000  1  # C
 0.799269080268  88.804414823238  12.700000000000  1  # C
 -0.481160873128  90.928302562385  12.700000000000  1  # C
 40.438394840864  25.827039226736  12.700000000000  1  # C
 41.691723396930  25.134723646009  12.700000000000  1  # C
 39.157964887469  27.950926965883  12.700000000000  1  # C
 40.411293443534  27.258611385155  12.700000000000  1  # C
 37.877534934073  30.074814705029  12.700000000000  1  # C
 39.130863490139  29.382499124302  12.700000000000  1  # C
 36.597104980678  32.198702444175  12.700000000000  1  # C
 37.850433536743  31.506386863448  12.700000000000  1  # C
 35.316675027282  34.322590183322  12.700000000000  1  # C
 36.570003583348  33.630274602594  12.700000000000  1  # C
 34.036245073887  36.446477922468  12.700000000000  1  # C
 35.289573629952  35.754162341741  12.700000000000  1  # C
 32.755815120491  38.570365661615  12.700000000000  1  # C
 34.009143676557  37.878050080887  12.700000000000  1  # C
 31.475385167096  40.694253400761  12.700000000000  1  # C
 32.728713723162  40.001937820034  12.700000000000  1  # C
 30.194955213700  42.818141139908  12.700000000000  1  # C
 31.448283769766  42.125825559180  12.700000000000  1  # C
 28.914525260305  44.942028879054  12.700000000000  1  # C
 30.167853816371  44.249713298327  12.700000000000  1  # C
 27.634095306909  47.065916618201  12.700000000000  1  # C
 28.887423862975  46.373601037473  12.700000000000  1  # C
 26.353665353514  49.189804357347  12.700000000000  1  # C
 27.606993909580  48.497488776620  12.700000000000  1  # C
 25.073235400119  51.313692096494  12.700000000000  1  # C
 26.326563956184  50.621376515766  12.700000000000  1  # C
 23.792805446723  53.437579835640  12.700000000000  1  # C
 25.046134002789  52.745264254913  12.700000000000  1  # C
 22.512375493328  55.561467574786  12.700000000000  1  # C
 23.765704049393  54.869151994059  12.700000000000  1  # C
 21.231945539932  57.685355313933  12.700000000000  1  # C
 22.485274095998  56.993039733205  12.700000000000  1  # C
 19.951515586537  59.809243053079  12.700000000000  1  # C
 21.204844142602  59.116927472352  12.700000000000  1  # C
 18.671085633141  61.933130792226  12.700000000000  1  # C
 19.924414189207  61.240815211498  12.700000000000  1  # C
 17.390655679746  64.057018531372  12.700000000000  1  # C
 18.643984235811  63.364702950645  12.700000000000  1  # C
 16.110225726350  66.180906270519  12.700000000000  1  # C
 17.363554282416  65.488590689791  12.700000000000  1  # C
 14.829795772955  68.304794009665  12.700000000000  1  # C
 16.083124329020  67.612478428938  12.700000000000  1  # C
 13.549365819559  70.428681748812  12.700000000000  1  # C
 14.802694375625  69.736366168084  12.700000000000  1  # C
 12.268935866164  72.552569487958  12.700000000000  1  # C
 13.522264422229  71.860253907231  12.700000000000  1  # C
 10.988505912768  74.676457227105  12.700000000000  1  # C
 12.241834468834  73.984141646377  12.700000000000  1  # C
 9.708075959373  76.800344966251  12.700000000000  1  # C
 10.961404515438  76.108029385524  12.700000000000  1  # C
 8.427646005977  78.924232705397  12.700000000000  1  # C
 9.680974562043  78.231917124670  12.700000000000  1  # C
 7.147216052582  81.048120444544  12.700000000000  1  # C
 8.400544608647  80.355804863816  12.700000000000  1  # C
 5.866786099186  83.172008183690  12.700000000000  1  # C
 7.120114655252  82.479692602963  12.700000000000  1  # C
 4.586356145791  85.295895922837  12.700000000000  1  # C
 5.839684701856  84.603580342109  12.700000000000  1  # C
 3.305926192395  87.419783661983  12.700000000000  1  # C
 4.559254748461  86.727468081256  12.700000000000  1  # C
 2.025496239000  89.543671401130  12.700000000000  1  # C
 3.278824795065  88.851355820402  12.700000000000  1  # C
 0.745066285604  91.667559140276  12.700000000000  1  # C
 1.998394841670  90.975243559549  12.700000000000  1  # C
 -0.535363667791  93.791446879423  12.700000000000  1  # C
 0.717964888274  93.099131298695  12.700000000000  1  # C
 -0.562465065121  95.223019037842  12.700000000000  1  # C
 42.917950555662  25.873980223900  12.700000000000  1  # C
 41.637520602266  27.997867963046  12.700000000000  1  # C
 42.890849158332  27.305552382319  12.700000000000  1  # C
 40.357090648871  30.121755702193  12.700000000000  1  # C
 41.610419204937  29.429440121465  12.700000000000  1  # C
 39.076660695475  32.245643441339  12.700000000000  1  # C
 40.329989251541  31.553327860612  12.700000000000  1  # C
 37.796230742080  34.369531180486  12.700000000000  1  # C
 39.049559298146  33.677215599758  12.700000000000  1  # C
 36.515800788684  36.493418919632  12.700000000000  1  # C
 37.769129344750  35.801103338905  12.700000000000  1  # C
 35.235370835289  38.617306658779  12.700000000000  1  # C
 36.488699391355  37.924991078051  12.700000000000  1  # C
 33.954940881893  40.741194397925  12.700000000000  1  # C
 35.208269437959  40.048878817198  12.700000000000  1  # C
 32.674510928498  42.865082137072  12.700000000000  1  # C
 33.927839484564  42.172766556344  12.700000000000  1  # C
 31.394080975103  44.988969876218  12.700000000000  1  # C
 32.647409531168  44.296654295491  12.700000000000  1  # C
 30.113651021707  47.112857615365  12.700000000000  1  # C
 31.366979577773  46.420542034637  12.700000000000  1  # C
 28.833221068312  49.236745354511  12.700000000000  1  # C
 30.086549624377  48.544429773784  12.700000000000  1  # C
 27.552791114916  51.360633093657  12.700000000000  1  # C
 28.806119670982  50.668317512930  12.700000000000  1  # C
 26.272361161521  53.484520832804  12.700000000000  1  # C
 27.525689717586  52.792205252076  12.700000000000  1  # C
 24.991931208125  55.608408571950  12.700000000000  1  # C
 26.245259764191  54.916092991223  12.700000000000  1  # C
 23.711501254730  57.732296311097  12.700000000000  1  # C
 24.964829810795  57.039980730369  12.700000000000  1  # C
 22.431071301334  59.856184050243  12.700000000000  1  # C
 23.684399857400  59.163868469516  12.700000000000  1  # C
 21.150641347939  61.980071789390  12.700000000000  1  # C
 22.403969904004  61.287756208662  12.700000000000  1  # C
 19.870211394543  64.103959528536  12.700000000000  1  # C
 21.123539950609  63.411643947809  12.700000000000  1  # C
 18.589781441148  66.227847267683  12.700000000000  1  # C
 19.843109997213  65.535531686955  12.700000000000  1  # C
 17.309351487752  68.351735006829  12.700000000000  1  # C
 18.562680043818  67.659419426102  12.700000000000  1  # C
 16.028921534357  70.475622745976  12.700000000000  1  # C
 17.282250090422  69.783307165248  12.700000000000  1  # C
 14.748491580961  72.599510485122  12.700000000000  1  # C
 16.001820137027  71.907194904395  12.700000000000  1  # C
 13.468061627566  74.723398224268  12.700000000000  1  # C
 14.721390183631  74.031082643541  12.700000000000  1  # C
 12.187631674170  76.847285963415  12.700000000000  1  # C
 13.440960230236  76.154970382687  12.700000000000  1  # C
 10.907201720775  78.971173702561  12.700000000000  1  # C
 12.160530276840  78.278858121834  12.700000000000  1  # C
 9.626771767379  81.095061441708  12.700000000000  1  # C
 10.880100323445  80.402745860980  12.700000000000  1  # C
 8.346341813984  83.218949180854  12.700000000000  1  # C
 9.599670370049  82.526633600127  12.700000000000  1  # C
 7.065911860588  85.342836920001  12.700000000000  1  # C
 8.319240416654  84.650521339273  12.700000000000  1  # C
 5.785481907193  87.466724659147  12.700000000000  1  # C
 7.038810463258  86.774409078420  12.700000000000  1  # C
 4.505051953797  89.590612398294  12.700000000000  1  # C
 5.758380509863  88.898296817566  12.700000000000  1  # C
 3.224622000402  91.714500137440  12.700000000000  1  # C
 4.477950556467  91.022184556713  12.700000000000  1  # C
 1.944192047006  93.838387876587  12.700000000000  1  # C
 3.197520603072  93.146072295859  12.700000000000  1  # C
 0.663762093611  95.962275615733  12.700000000000  1  # C
 1.917090649677  95.269960035006  12.700000000000  1  # C
 -0.616667859785  98.086163354879  12.700000000000  1  # C
 0.636660696281  97.393847774152  12.700000000000  1  # C
 -0.643769257114  99.517735513298  12.700000000000  1  # C
 44.117076317064  28.044808960210  12.700000000000  1  # C
 45.370404873130  27.352493379483  12.700000000000  1  # C
 42.836646363668  30.168696699357  12.700000000000  1  # C
 44.089974919734  29.476381118629  12.700000000000  1  # C
 41.556216410273  32.292584438503  12.700000000000  1  # C
 42.809544966339  31.600268857776  12.700000000000  1  # C
 40.275786456877  34.416472177650  12.700000000000  1  # C
 41.529115012943  33.724156596922  12.700000000000  1  # C
 38.995356503482  36.540359916796  12.700000000000  1  # C
 40.248685059548  35.848044336069  12.700000000000  1  # C
 37.714926550087  38.664247655943  12.700000000000  1  # C
 38.968255106152  37.971932075215  12.700000000000  1  # C
 36.434496596691  40.788135395089  12.700000000000  1  # C
 37.687825152757  40.095819814362  12.700000000000  1  # C
 35.154066643296  42.912023134236  12.700000000000  1  # C
 36.407395199361  42.219707553508  12.700000000000  1  # C
 33.873636689900  45.035910873382  12.700000000000  1  # C
 35.126965245966  44.343595292655  12.700000000000  1  # C
 32.593206736505  47.159798612528  12.700000000000  1  # C
 33.846535292570  46.467483031801  12.700000000000  1  # C
 31.312776783109  49.283686351675  12.700000000000  1  # C
 32.566105339175  48.591370770947  12.700000000000  1  # C
 30.032346829714  51.407574090821  12.700000000000  1  # C
 31.285675385779  50.715258510094  12.700000000000  1  # C
 28.751916876318  53.531461829968  12.700000000000  1  # C
 30.005245432384  52.839146249240  12.700000000000  1  # C
 27.471486922923  55.655349569114  12.700000000000  1  # C
 28.724815478988  54.963033988387  12.700000000000  1  # C
 26.191056969527  57.779237308261  12.700000000000  1  # C
 27.444385525593  57.086921727533  12.700000000000  1  # C
 24.910627016132  59.903125047407  12.700000000000  1  # C
 26.163955572197  59.210809466680  12.700000000000  1  # C
 23.630197062736  62.027012786554  12.700000000000  1  # C
 24.883525618802  61.334697205826  12.700000000000  1  # C
 22.349767109341  64.150900525700  12.700000000000  1  # C
 23.603095665406  63.458584944973  12.700000000000  1  # C
 21.069337155945  66.274788264847  12.700000000000  1  # C
 22.322665712011  65.582472684119  12.700000000000  1  # C
 19.788907202550  68.398676003993  12.700000000000  1  # C
 21.042235758615  67.706360423266  12.700000000000  1  # C
 18.508477249154  70.522563743139  12.700000000000  1  # C
 19.761805805220  69.830248162412  12.700000000000  1  # C
 17.228047295759  72.646451482286  12.700000000000  1  # C
 18.481375851824  71.954135901558  12.700000000000  1  # C
 15.947617342363  74.770339221432  12.700000000000  1  # C
 17.200945898429  74.078023640705  12.700000000000  1  # C
 14.667187388968  76.894226960579  12.700000000000  1  # C
 15.920515945033  76.201911379851  12.700000000000  1  # C
 13.386757435572  79.018114699725  12.700000000000  1  # C
 14.640085991638  78.325799118998  12.700000000000  1  # C
 12.106327482177  81.142002438872  12.700000000000  1  # C
 13.359656038242  80.449686858144  12.700000000000  1  # C
 10.825897528781  83.265890178018  12.700000000000  1  # C
 12.079226084847  82.573574597291  12.700000000000  1  # C
 9.545467575386  85.389777917165  12.700000000000  1  # C
 10.798796131451  84.697462336437  12.700000000000  1  # C
 8.265037621990  87.513665656311  12.700000000000  1  # C
 9.518366178056  86.821350075584  12.700000000000  1  # C
 6.984607668595  89.637553395458  12.700000000000  1  # C
 8.237936224661  88.945237814730  12.700000000000  1  # C
 5.704177715199  91.761441134604  12.700000000000  1  # C
 6.957506271265  91.069125553877  12.700000000000  1  # C
 4.423747761804  93.885328873750  12.700000000000  1  # C
 5.677076317870  93.193013293023  12.700000000000  1  # C
 3.143317808408  96.009216612897  12.700000000000  1  # C
 4.396646364474  95.316901032169  12.700000000000  1  # C
 1.862887855013  98.133104352043  12.700000000000  1  # C
 3.116216411079  97.440788771316  12.700000000000  1  # C
 0.582457901617  100.256992091190  12.700000000000  1  # C
 1.835786457683  99.564676510462  12.700000000000  1  # C
 -0.697972051778  102.380879830336  12.700000000000  1  # C
 0.555356504288  101.688564249609  12.700000000000  1  # C
 -0.725073449108  103.812451988755  12.700000000000  1  # C
 46.596632031862  28.091749957374  12.700000000000  1  # C
 45.316202078466  30.215637696521  12.700000000000  1  # C
 46.569530634532  29.523322115793  12.700000000000  1  # C
 44.035772125071  32.339525435667  12.700000000000  1  # C
 45.289100681136  31.647209854940  12.700000000000  1  # C
 42.755342171675  34.463413174814  12.700000000000  1  # C
 44.008670727741  33.771097594086  12.700000000000  1  # C
 41.474912218280  36.587300913960  12.700000000000  1  # C
 42.728240774345  35.894985333233  12.700000000000  1  # C
 40.194482264884  38.711188653107  12.700000000000  1  # C
 41.447810820950  38.018873072379  12.700000000000  1  # C
 38.914052311489  40.835076392253  12.700000000000  1  # C
 40.167380867554  40.142760811526  12.700000000000  1  # C
 37.633622358093  42.958964131399  12.700000000000  1  # C
 38.886950914159  42.266648550672  12.700000000000  1  # C
 36.353192404698  45.082851870546  12.700000000000  1  # C
 37.606520960763  44.390536289818  12.700000000000  1  # C
 35.072762451302  47.206739609692  12.700000000000  1  # C
 36.326091007368  46.514424028965  12.700000000000  1  # C
 33.792332497907  49.330627348839  12.700000000000  1  # C
 35.045661053972  48.638311768111  12.700000000000  1  # C
 32.511902544511  51.454515087985  12.700000000000  1  # C
 33.765231100577  50.762199507258  12.700000000000  1  # C
 31.231472591116  53.578402827132  12.700000000000  1  # C
 32.484801147181  52.886087246404  12.700000000000  1  # C
 29.951042637720  55.702290566278  12.700000000000  1  # C
 31.204371193786  55.009974985551  12.700000000000  1  # C
 28.670612684325  57.826178305425  12.700000000000  1  # C
 29.923941240390  57.133862724697  12.700000000000  1  # C
 27.390182730929  59.950066044571  12.700000000000  1  # C
 28.643511286995  59.257750463844  12.700000000000  1  # C
 26.109752777534  62.073953783718  12.700000000000  1  # C
 27.363081333599  61.381638202990  12.700000000000  1  # C
 24.829322824138  64.197841522864  12.700000000000  1  # C
 26.082651380204  63.505525942137  12.700000000000  1  # C
 23.548892870743  66.321729262010  12.700000000000  1  # C
 24.802221426808  65.629413681283  12.700000000000  1  # C
 22.268462917347  68.445617001157  12.700000000000  1  # C
 23.521791473413  67.753301420429  12.700000000000  1  # C
 20.988032963952  70.569504740303  12.700000000000  1  # C
 22.241361520017  69.877189159576  12.700000000000  1  # C
 19.707603010556  72.693392479450  12.700000000000  1  # C
 20.960931566622  72.001076898722  12.700000000000  1  # C
 18.427173057161  74.817280218596  12.700000000000  1  # C
 19.680501613226  74.124964637869  12.700000000000  1  # C
 17.146743103765  76.941167957743  12.700000000000  1  # C
 18.400071659831  76.248852377015  12.700000000000  1  # C
 15.866313150370  79.065055696889  12.700000000000  1  # C
 17.119641706436  78.372740116162  12.700000000000  1  # C
 14.585883196974  81.188943436036  12.700000000000  1  # C
 15.839211753040  80.496627855308  12.700000000000  1  # C
 13.305453243579  83.312831175182  12.700000000000  1  # C
 14.558781799645  82.620515594455  12.700000000000  1  # C
 12.025023290183  85.436718914329  12.700000000000  1  # C
 13.278351846249  84.744403333601  12.700000000000  1  # C
 10.744593336788  87.560606653475  12.700000000000  1  # C
 11.997921892854  86.868291072748  12.700000000000  1  # C
 9.464163383392  89.684494392621  12.700000000000  1  # C
 10.717491939458  88.992178811894  12.700000000000  1  # C
 8.183733429997  91.808382131768  12.700000000000  1  # C
 9.437061986063  91.116066551040  12.700000000000  1  # C
 6.903303476602  93.932269870914  12.700000000000  1  # C
 8.156632032667  93.239954290187  12.700000000000  1  # C
 5.622873523206  96.056157610061  12.700000000000  1  # C
 6.876202079272  95.363842029333  12.700000000000  1  # C
 4.342443569811  98.180045349207  12.700000000000  1  # C
 5.595772125876  97.487729768480  12.700000000000  1  # C
 3.062013616415  100.303933088354  12.700000000000  1  # C
 4.315342172481  99.611617507626  12.700000000000  1  # C
 1.781583663020  102.427820827500  12.700000000000  1  # C
 3.034912219085  101.735505246773  12.700000000000  1  # C
 0.501153709624  104.551708566647  12.700000000000  1  # C
 1.754482265690  103.859392985919  12.700000000000  1  # C
 -0.779276243771  106.675596305793  12.700000000000  1  # C
 0.474052312294  105.983280725066  12.700000000000  1  # C
 -0.806377641101  108.107168464212  12.700000000000  1  # C
 47.795757793264  30.262578693685  12.700000000000  1  # C
 49.049086349329  29.570263112957  12.700000000000  1  # C
 46.515327839868  32.386466432831  12.700000000000  1  # C
 47.768656395934  31.694150852104  12.700000000000  1  # C
 45.234897886473  34.510354171978  12.700000000000  1  # C
 46.488226442538  33.818038591250  12.700000000000  1  # C
 43.954467933077  36.634241911124  12.700000000000  1  # C
 45.207796489143  35.941926330397  12.700000000000  1  # C
 42.674037979682  38.758129650270  12.700000000000  1  # C
 43.927366535747  38.065814069543  12.700000000000  1  # C
 41.393608026286  40.882017389417  12.700000000000  1  # C
 42.646936582352  40.189701808689  12.700000000000  1  # C
 40.113178072891  43.005905128563  12.700000000000  1  # C
 41.366506628956  42.313589547836  12.700000000000  1  # C
 38.832748119495  45.129792867710  12.700000000000  1  # C
 40.086076675561  44.437477286982  12.700000000000  1  # C
 37.552318166100  47.253680606856  12.700000000000  1  # C
 38.805646722165  46.561365026129  12.700000000000  1  # C
 36.271888212704  49.377568346003  12.700000000000  1  # C
 37.525216768770  48.685252765275  12.700000000000  1  # C
 34.991458259309  51.501456085149  12.700000000000  1  # C
 36.244786815374  50.809140504422  12.700000000000  1  # C
 33.711028305913  53.625343824296  12.700000000000  1  # C
 34.964356861979  52.933028243568  12.700000000000  1  # C
 32.430598352518  55.749231563442  12.700000000000  1  # C
 33.683926908583  55.056915982715  12.700000000000  1  # C
 31.150168399122  57.873119302589  12.700000000000  1  # C
 32.403496955188  57.180803721861  12.700000000000  1  # C
 29.869738445727  59.997007041735  12.700000000000  1  # C
 31.123067001792  59.304691461008  12.700000000000  1  # C
 28.589308492331  62.120894780881  12.700000000000  1  # C
 29.842637048397  61.428579200154  12.700000000000  1  # C
 27.308878538936  64.244782520028  12.700000000000  1  # C
 28.562207095001  63.552466939300  12.700000000000  1  # C
 26.028448585540  66.368670259174  12.700000000000  1  # C
 27.281777141606  65.676354678447  12.700000000000  1  # C
 24.748018632145  68.492557998321  12.700000000000  1  # C
 26.001347188210  67.800242417593  12.700000000000  1  # C
 23.467588678749  70.616445737467  12.700000000000  1  # C
 24.720917234815  69.924130156740  12.700000000000  1  # C
 22.187158725354  72.740333476614  12.700000000000  1  # C
 23.440487281420  72.048017895886  12.700000000000  1  # C
 20.906728771958  74.864221215760  12.700000000000  1  # C
 22.160057328024  74.171905635033  12.700000000000  1  # C
 19.626298818563  76.988108954907  12.700000000000  1  # C
 20.879627374629  76.295793374179  12.700000000000  1  # C
 18.345868865167  79.111996694053  12.700000000000  1  # C
 19.599197421233  78.419681113326  12.700000000000  1  # C
 17.065438911772  81.235884433200  12.700000000000  1  # C
 18.318767467838  80.543568852472  12.700000000000  1  # C
 15.785008958376  83.359772172346  12.700000000000  1  # C
 17.038337514442  82.667456591619  12.700000000000  1  # C
 14.504579004981  85.483659911492  12.700000000000  1  # C
 15.757907561047  84.791344330765  12.700000000000  1  # C
 13.224149051586  87.607547650639  12.700000000000  1  # C
 14.477477607651  86.915232069911  12.700000000000  1  # C
 11.943719098190  89.731435389785  12.700000000000  1  # C
 13.197047654256  89.039119809058  12.700000000000  1  # C
 10.663289144795  91.855323128932  12.700000000000  1  # C
 11.916617700860  91.163007548204  12.700000000000  1  # C
 9.382859191399  93.979210868078  12.700000000000  1  # C
 10.636187747465  93.286895287351  12.700000000000  1  # C
 8.102429238004  96.103098607225  12.700000000000  1  # C
 9.355757794069  95.410783026497  12.700000000000  1  # C
 6.821999284608  98.226986346371  12.700000000000  1  # C
 8.075327840674  97.534670765644  12.700000000000  1  # C
 5.541569331213  100.350874085518  12.700000000000  1  # C
 6.794897887278  99.658558504790  12.700000000000  1  # C
 4.261139377817  102.474761824664  12.700000000000  1  # C
 5.514467933883  101.782446243937  12.700000000000  1  # C
 2.980709424422  104.598649563811  12.700000000000  1  # C
 4.234037980487  103.906333983083  12.700000000000  1  # C
 1.700279471026  106.722537302957  12.700000000000  1  # C
 2.953608027092  106.030221722230  12.700000000000  1  # C
 0.419849517631  108.846425042104  12.700000000000  1  # C
 1.673178073696  108.154109461376  12.700000000000  1  # C
 -0.860580435765  110.970312781250  12.700000000000  1  # C
 0.392748120301  110.277997200522  12.700000000000  1  # C
 -0.887681833095  112.401884939669  12.700000000000  1  # C
 50.275313508061  30.309519690849  12.700000000000  1  # C
 48.994883554666  32.433407429995  12.700000000000  1  # C
 50.248212110731  31.741091849268  12.700000000000  1  # C
 47.714453601270  34.557295169142  12.700000000000  1  # C
 48.967782157336  33.864979588414  12.700000000000  1  # C
 46.434023647875  36.681182908288  12.700000000000  1  # C
 47.687352203940  35.988867327560  12.700000000000  1  # C
 45.153593694479  38.805070647434  12.700000000000  1  # C
 46.406922250545  38.112755066707  12.700000000000  1  # C
 43.873163741084  40.928958386581  12.700000000000  1  # C
 45.126492297149  40.236642805853  12.700000000000  1  # C
 42.592733787688  43.052846125727  12.700000000000  1  # C
 43.846062343754  42.360530545000  12.700000000000  1  # C
 41.312303834293  45.176733864874  12.700000000000  1  # C
 42.565632390358  44.484418284146  12.700000000000  1  # C
 40.031873880897  47.300621604020  12.700000000000  1  # C
 41.285202436963  46.608306023293  12.700000000000  1  # C
 38.751443927502  49.424509343167  12.700000000000  1  # C
 40.004772483567  48.732193762439  12.700000000000  1  # C
 37.471013974106  51.548397082313  12.700000000000  1  # C
 38.724342530172  50.856081501586  12.700000000000  1  # C
 36.190584020711  53.672284821460  12.700000000000  1  # C
 37.443912576776  52.979969240732  12.700000000000  1  # C
 34.910154067315  55.796172560606  12.700000000000  1  # C
 36.163482623381  55.103856979879  12.700000000000  1  # C
 33.629724113920  57.920060299753  12.700000000000  1  # C
 34.883052669985  57.227744719025  12.700000000000  1  # C
 32.349294160524  60.043948038899  12.700000000000  1  # C
 33.602622716590  59.351632458171  12.700000000000  1  # C
 31.068864207129  62.167835778045  12.700000000000  1  # C
 32.322192763195  61.475520197318  12.700000000000  1  # C
 29.788434253733  64.291723517192  12.700000000000  1  # C
 31.041762809799  63.599407936464  12.700000000000  1  # C
 28.508004300338  66.415611256338  12.700000000000  1  # C
 29.761332856404  65.723295675611  12.700000000000  1  # C
 27.227574346942  68.539498995485  12.700000000000  1  # C
 28.480902903008  67.847183414757  12.700000000000  1  # C
 25.947144393547  70.663386734631  12.700000000000  1  # C
 27.200472949613  69.971071153904  12.700000000000  1  # C
 24.666714440151  72.787274473778  12.700000000000  1  # C
 25.920042996217  72.094958893050  12.700000000000  1  # C
 23.386284486756  74.911162212924  12.700000000000  1  # C
 24.639613042822  74.218846632197  12.700000000000  1  # C
 22.105854533361  77.035049952071  12.700000000000  1  # C
 23.359183089426  76.342734371343  12.700000000000  1  # C
 20.825424579965  79.158937691217  12.700000000000  1  # C
 22.078753136031  78.466622110490  12.700000000000  1  # C
 19.544994626570  81.282825430364  12.700000000000  1  # C
 20.798323182635  80.590509849636  12.700000000000  1  # C
 18.264564673174  83.406713169510  12.700000000000  1  # C
 19.517893229240  82.714397588782  12.700000000000  1  # C
 16.984134719779  85.530600908656  12.700000000000  1  # C
 18.237463275844  84.838285327929  12.700000000000  1  # C
 15.703704766383  87.654488647803  12.700000000000  1  # C
 16.957033322449  86.962173067075  12.700000000000  1  # C
 14.423274812988  89.778376386949  12.700000000000  1  # C
 15.676603369053  89.086060806222  12.700000000000  1  # C
 13.142844859592  91.902264126096  12.700000000000  1  # C
 14.396173415658  91.209948545368  12.700000000000  1  # C
 11.862414906197  94.026151865242  12.700000000000  1  # C
 13.115743462262  93.333836284515  12.700000000000  1  # C
 10.581984952801  96.150039604389  12.700000000000  1  # C
 11.835313508867  95.457724023661  12.700000000000  1  # C
 9.301554999406  98.273927343535  12.700000000000  1  # C
 10.554883555471  97.581611762808  12.700000000000  1  # C
 8.021125046010  100.397815082682  12.700000000000  1  # C
 9.274453602076  99.705499501954  12.700000000000  1  # C
 6.740695092615  102.521702821828  12.700000000000  1  # C
 7.994023648680  101.829387241101  12.700000000000  1  # C
 5.460265139219  104.645590560975  12.700000000000  1  # C
 6.713593695285  103.953274980247  12.700000000000  1  # C
 4.179835185824  106.769478300121  12.700000000000  1  # C
 5.433163741889  106.077162719393  12.700000000000  1  # C
 2.899405232428  108.893366039267  12.700000000000  1  # C
 4.152733788494  108.201050458540  12.700000000000  1  # C
 1.618975279033  111.017253778414  12.700000000000  1  # C
 2.872303835098  110.324938197686  12.700000000000  1  # C
 0.338545325637  113.141141517560  12.700000000000  1  # C
 1.591873881703  112.448825936833  12.700000000000  1  # C
 -0.941884627758  115.265029256707  12.700000000000  1  # C
 0.311443928307  114.572713675979  12.700000000000  1  # C
 -0.968986025088  116.696601415126  12.700000000000  1  # C
 51.474439269463  32.480348427159  12.700000000000  1  # C
 52.727767825529  31.788032846431  12.700000000000  1  # C
 50.194009316068  34.604236166305  12.700000000000  1  # C
 51.447337872133  33.911920585578  12.700000000000  1  # C
 48.913579362672  36.728123905452  12.700000000000  1  # C
 50.166907918738  36.035808324724  12.700000000000  1  # C
 47.633149409277  38.852011644598  12.700000000000  1  # C
 48.886477965342  38.159696063871  12.700000000000  1  # C
 46.352719455881  40.975899383745  12.700000000000  1  # C
 47.606048011947  40.283583803017  12.700000000000  1  # C
 45.072289502486  43.099787122891  12.700000000000  1  # C
 46.325618058551  42.407471542164  12.700000000000  1  # C
 43.791859549090  45.223674862038  12.700000000000  1  # C
 45.045188105156  44.531359281310  12.700000000000  1  # C
 42.511429595695  47.347562601184  12.700000000000  1  # C
 43.764758151760  46.655247020457  12.700000000000  1  # C
 41.230999642299  49.471450340331  12.700000000000  1  # C
 42.484328198365  48.779134759603  12.700000000000  1  # C
 39.950569688904  51.595338079477  12.700000000000  1  # C
 41.203898244969  50.903022498750  12.700000000000  1  # C
 38.670139735508  53.719225818624  12.700000000000  1  # C
 39.923468291574  53.026910237896  12.700000000000  1  # C
 37.389709782113  55.843113557770  12.700000000000  1  # C
 38.643038338179  55.150797977042  12.700000000000  1  # C
 36.109279828717  57.967001296916  12.700000000000  1  # C
 37.362608384783  57.274685716189  12.700000000000  1  # C
 34.828849875322  60.090889036063  12.700000000000  1  # C
 36.082178431388  59.398573455335  12.700000000000  1  # C
 33.548419921926  62.214776775209  12.700000000000  1  # C
 34.801748477992  61.522461194482  12.700000000000  1  # C
 32.267989968531  64.338664514356  12.700000000000  1  # C
 33.521318524597  63.646348933628  12.700000000000  1  # C
 30.987560015135  66.462552253502  12.700000000000  1  # C
 32.240888571201  65.770236672775  12.700000000000  1  # C
 29.707130061740  68.586439992649  12.700000000000  1  # C
 30.960458617806  67.894124411921  12.700000000000  1  # C
 28.426700108345  70.710327731795  12.700000000000  1  # C
 29.680028664410  70.018012151068  12.700000000000  1  # C
 27.146270154949  72.834215470942  12.700000000000  1  # C
 28.399598711015  72.141899890214  12.700000000000  1  # C
 25.865840201554  74.958103210088  12.700000000000  1  # C
 27.119168757619  74.265787629361  12.700000000000  1  # C
 24.585410248158  77.081990949235  12.700000000000  1  # C
 25.838738804224  76.389675368507  12.700000000000  1  # C
 23.304980294763  79.205878688381  12.700000000000  1  # C
 24.558308850828  78.513563107653  12.700000000000  1  # C
 22.024550341367  81.329766427527  12.700000000000  1  # C
 23.277878897433  80.637450846800  12.700000000000  1  # C
 20.744120387972  83.453654166674  12.700000000000  1  # C
 21.997448944037  82.761338585946  12.700000000000  1  # C
 19.463690434576  85.577541905820  12.700000000000  1  # C
 20.717018990642  84.885226325093  12.700000000000  1  # C
 18.183260481181  87.701429644967  12.700000000000  1  # C
 19.436589037246  87.009114064239  12.700000000000  1  # C
 16.902830527785  89.825317384113  12.700000000000  1  # C
 18.156159083851  89.133001803386  12.700000000000  1  # C
 15.622400574390  91.949205123260  12.700000000000  1  # C
 16.875729130455  91.256889542532  12.700000000000  1  # C
 14.341970620994  94.073092862406  12.700000000000  1  # C
 15.595299177060  93.380777281679  12.700000000000  1  # C
 13.061540667599  96.196980601553  12.700000000000  1  # C
 14.314869223664  95.504665020825  12.700000000000  1  # C
 11.781110714203  98.320868340699  12.700000000000  1  # C
 13.034439270269  97.628552759972  12.700000000000  1  # C
 10.500680760808  100.444756079846  12.700000000000  1  # C
 11.754009316873  99.752440499118  12.700000000000  1  # C
 9.220250807412  102.568643818992  12.700000000000  1  # C
 10.473579363478  101.876328238264  12.700000000000  1  # C
 7.939820854017  104.692531558138  12.700000000000  1  # C
 9.193149410082  104.000215977411  12.700000000000  1  # C
 6.659390900621  106.816419297285  12.700000000000  1  # C
 7.912719456687  106.124103716557  12.700000000000  1  # C
 5.378960947226  108.940307036431  12.700000000000  1  # C
 6.632289503291  108.247991455704  12.700000000000  1  # C
 4.098530993830  111.064194775578  12.700000000000  1  # C
 5.351859549896  110.371879194850  12.700000000000  1  # C
 2.818101040435  113.188082514724  12.700000000000  1  # C
 4.071429596500  112.495766933997  12.700000000000  1  # C
 1.537671087039  115.311970253871  12.700000000000  1  # C
 2.790999643105  114.619654673143  12.700000000000  1  # C
 0.257241133644  117.435857993017  12.700000000000  1  # C
 1.510569689709  116.743542412290  12.700000000000  1  # C
 -1.023188819752  119.559745732164  12.700000000000  1  # C
 0.230139736314  118.867430151436  12.700000000000  1  # C
 -1.050290217081  120.991317890583  12.700000000000  1  # C
 53.953994984261  32.527289424323  12.700000000000  1  # C
 52.673565030865  34.651177163469  12.700000000000  1  # C
 53.926893586931  33.958861582742  12.700000000000  1  # C
 51.393135077470  36.775064902616  12.700000000000  1  # C
 52.646463633535  36.082749321888  12.700000000000  1  # C
 50.112705124074  38.898952641762  12.700000000000  1  # C
 51.366033680140  38.206637061035  12.700000000000  1  # C
 48.832275170679  41.022840380909  12.700000000000  1  # C
 50.085603726744  40.330524800181  12.700000000000  1  # C
 47.551845217283  43.146728120055  12.700000000000  1  # C
 48.805173773349  42.454412539328  12.700000000000  1  # C
 46.271415263888  45.270615859202  12.700000000000  1  # C
 47.524743819954  44.578300278474  12.700000000000  1  # C
 44.990985310492  47.394503598348  12.700000000000  1  # C
 46.244313866558  46.702188017621  12.700000000000  1  # C
 43.710555357097  49.518391337495  12.700000000000  1  # C
 44.963883913163  48.826075756767  12.700000000000  1  # C
 42.430125403701  51.642279076641  12.700000000000  1  # C
 43.683453959767  50.949963495913  12.700000000000  1  # C
 41.149695450306  53.766166815787  12.700000000000  1  # C
 42.403024006372  53.073851235060  12.700000000000  1  # C
 39.869265496910  55.890054554934  12.700000000000  1  # C
 41.122594052976  55.197738974206  12.700000000000  1  # C
 38.588835543515  58.013942294080  12.700000000000  1  # C
 39.842164099581  57.321626713353  12.700000000000  1  # C
 37.308405590120  60.137830033227  12.700000000000  1  # C
 38.561734146185  59.445514452499  12.700000000000  1  # C
 36.027975636724  62.261717772373  12.700000000000  1  # C
 37.281304192790  61.569402191646  12.700000000000  1  # C
 34.747545683329  64.385605511520  12.700000000000  1  # C
 36.000874239394  63.693289930792  12.700000000000  1  # C
 33.467115729933  66.509493250666  12.700000000000  1  # C
 34.720444285999  65.817177669939  12.700000000000  1  # C
 32.186685776538  68.633380989813  12.700000000000  1  # C
 33.440014332603  67.941065409085  12.700000000000  1  # C
 30.906255823142  70.757268728959  12.700000000000  1  # C
 32.159584379208  70.064953148232  12.700000000000  1  # C
 29.625825869747  72.881156468106  12.700000000000  1  # C
 30.879154425812  72.188840887378  12.700000000000  1  # C
 28.345395916351  75.005044207252  12.700000000000  1  # C
 29.598724472417  74.312728626524  12.700000000000  1  # C
 27.064965962956  77.128931946398  12.700000000000  1  # C
 28.318294519021  76.436616365671  12.700000000000  1  # C
 25.784536009560  79.252819685545  12.700000000000  1  # C
 27.037864565626  78.560504104817  12.700000000000  1  # C
 24.504106056165  81.376707424691  12.700000000000  1  # C
 25.757434612230  80.684391843964  12.700000000000  1  # C
 23.223676102769  83.500595163838  12.700000000000  1  # C
 24.477004658835  82.808279583110  12.700000000000  1  # C
 21.943246149374  85.624482902984  12.700000000000  1  # C
 23.196574705439  84.932167322257  12.700000000000  1  # C
 20.662816195978  87.748370642131  12.700000000000  1  # C
 21.916144752044  87.056055061403  12.700000000000  1  # C
 19.382386242583  89.872258381277  12.700000000000  1  # C
 20.635714798648  89.179942800550  12.700000000000  1  # C
 18.101956289187  91.996146120424  12.700000000000  1  # C
 19.355284845253  91.303830539696  12.700000000000  1  # C
 16.821526335792  94.120033859570  12.700000000000  1  # C
 18.074854891857  93.427718278843  12.700000000000  1  # C
 15.541096382396  96.243921598717  12.700000000000  1  # C
 16.794424938462  95.551606017989  12.700000000000  1  # C
 14.260666429001  98.367809337863  12.700000000000  1  # C
 15.513994985066  97.675493757135  12.700000000000  1  # C
 12.980236475605  100.491697077009  12.700000000000  1  # C
 14.233565031671  99.799381496282  12.700000000000  1  # C
 11.699806522210  102.615584816156  12.700000000000  1  # C
 12.953135078275  101.923269235428  12.700000000000  1  # C
 10.419376568814  104.739472555302  12.700000000000  1  # C
 11.672705124880  104.047156974575  12.700000000000  1  # C
 9.138946615419  106.863360294449  12.700000000000  1  # C
 10.392275171484  106.171044713721  12.700000000000  1  # C
 7.858516662023  108.987248033595  12.700000000000  1  # C
 9.111845218089  108.294932452868  12.700000000000  1  # C
 6.578086708628  111.111135772742  12.700000000000  1  # C
 7.831415264693  110.418820192014  12.700000000000  1  # C
 5.297656755232  113.235023511888  12.700000000000  1  # C
 6.550985311298  112.542707931161  12.700000000000  1  # C
 4.017226801837  115.358911251035  12.700000000000  1  # C
 5.270555357903  114.666595670307  12.700000000000  1  # C
 2.736796848441  117.482798990181  12.700000000000  1  # C
 3.990125404507  116.790483409454  12.700000000000  1  # C
 1.456366895046  119.606686729328  12.700000000000  1  # C
 2.709695451112  118.914371148600  12.700000000000  1  # C
 0.175936941650  121.730574468474  12.700000000000  1  # C
 1.429265497716  121.038258887746  12.700000000000  1  # C
 -1.104493011745  123.854462207620  12.700000000000  1  # C
 0.148835544321  123.162146626893  12.700000000000  1  # C
 -1.131594409075  125.286034366039  12.700000000000  1  # C
 55.153120745663  34.698118160633  12.700000000000  1  # C
 56.406449301729  34.005802579906  12.700000000000  1  # C
 53.872690792267  36.822005899780  12.700000000000  1  # C
 55.126019348333  36.129690319052  12.700000000000  1  # C
 52.592260838872  38.945893638926  12.700000000000  1  # C
 53.845589394938  38.253578058199  12.700000000000  1  # C
 51.311830885476  41.069781378073  12.700000000000  1  # C
 52.565159441542  40.377465797345  12.700000000000  1  # C
 50.031400932081  43.193669117219  12.700000000000  1  # C
 51.284729488147  42.501353536492  12.700000000000  1  # C
 48.750970978685  45.317556856366  12.700000000000  1  # C
 50.004299534751  44.625241275638  12.700000000000  1  # C
 47.470541025290  47.441444595512  12.700000000000  1  # C
 48.723869581356  46.749129014784  12.700000000000  1  # C
 46.190111071894  49.565332334658  12.700000000000  1  # C
 47.443439627960  48.873016753931  12.700000000000  1  # C
 44.909681118499  51.689220073805  12.700000000000  1  # C
 46.163009674565  50.996904493077  12.700000000000  1  # C
 43.629251165104  53.813107812951  12.700000000000  1  # C
 44.882579721169  53.120792232224  12.700000000000  1  # C
 42.348821211708  55.936995552098  12.700000000000  1  # C
 43.602149767774  55.244679971370  12.700000000000  1  # C
 41.068391258313  58.060883291244  12.700000000000  1  # C
 42.321719814378  57.368567710517  12.700000000000  1  # C
 39.787961304917  60.184771030391  12.700000000000  1  # C
 41.041289860983  59.492455449663  12.700000000000  1  # C
 38.507531351522  62.308658769537  12.700000000000  1  # C
 39.760859907587  61.616343188810  12.700000000000  1  # C
 37.227101398126  64.432546508684  12.700000000000  1  # C
 38.480429954192  63.740230927956  12.700000000000  1  # C
 35.946671444731  66.556434247830  12.700000000000  1  # C
 37.200000000796  65.864118667103  12.700000000000  1  # C
 34.666241491335  68.680321986977  12.700000000000  1  # C
 35.919570047401  67.988006406249  12.700000000000  1  # C
 33.385811537940  70.804209726123  12.700000000000  1  # C
 34.639140094005  70.111894145395  12.700000000000  1  # C
 32.105381584544  72.928097465269  12.700000000000  1  # C
 33.358710140610  72.235781884542  12.700000000000  1  # C
 30.824951631149  75.051985204416  12.700000000000  1  # C
 32.078280187214  74.359669623688  12.700000000000  1  # C
 29.544521677753  77.175872943562  12.700000000000  1  # C
 30.797850233819  76.483557362835  12.700000000000  1  # C
 28.264091724358  79.299760682709  12.700000000000  1  # C
 29.517420280423  78.607445101981  12.700000000000  1  # C
 26.983661770962  81.423648421855  12.700000000000  1  # C
 28.236990327028  80.731332841128  12.700000000000  1  # C
 25.703231817567  83.547536161002  12.700000000000  1  # C
 26.956560373632  82.855220580274  12.700000000000  1  # C
 24.422801864171  85.671423900148  12.700000000000  1  # C
 25.676130420237  84.979108319421  12.700000000000  1  # C
 23.142371910776  87.795311639295  12.700000000000  1  # C
 24.395700466841  87.102996058567  12.700000000000  1  # C
 21.861941957380  89.919199378441  12.700000000000  1  # C
 23.115270513446  89.226883797714  12.700000000000  1  # C
 20.581512003985  92.043087117588  12.700000000000  1  # C
 21.834840560050  91.350771536860  12.700000000000  1  # C
 19.301082050589  94.166974856734  12.700000000000  1  # C
 20.554410606655  93.474659276006  12.700000000000  1  # C
 18.020652097194  96.290862595880  12.700000000000  1  # C
 19.273980653259  95.598547015153  12.700000000000  1  # C
 16.740222143798  98.414750335027  12.700000000000  1  # C
 17.993550699864  97.722434754299  12.700000000000  1  # C
 15.459792190403  100.538638074173  12.700000000000  1  # C
 16.713120746468  99.846322493446  12.700000000000  1  # C
 14.179362237007  102.662525813320  12.700000000000  1  # C
 15.432690793073  101.970210232592  12.700000000000  1  # C
 12.898932283612  104.786413552466  12.700000000000  1  # C
 14.152260839678  104.094097971739  12.700000000000  1  # C
 11.618502330216  106.910301291613  12.700000000000  1  # C
 12.871830886282  106.217985710885  12.700000000000  1  # C
 10.338072376821  109.034189030759  12.700000000000  1  # C
 11.591400932887  108.341873450032  12.700000000000  1  # C
 9.057642423425  111.158076769906  12.700000000000  1  # C
 10.310970979491  110.465761189178  12.700000000000  1  # C
 7.777212470030  113.281964509052  12.700000000000  1  # C
 9.030541026096  112.589648928325  12.700000000000  1  # C
 6.496782516634  115.405852248199  12.700000000000  1  # C
 7.750111072700  114.713536667471  12.700000000000  1  # C
 5.216352563239  117.529739987345  12.700000000000  1  # C
 6.469681119305  116.837424406617  12.700000000000  1  # C
 3.935922609844  119.653627726491  12.700000000000  1  # C
 5.189251165909  118.961312145764  12.700000000000  1  # C
 2.655492656448  121.777515465638  12.700000000000  1  # C
 3.908821212514  121.085199884910  12.700000000000  1  # C
 1.375062703053  123.901403204784  12.700000000000  1  # C
 2.628391259118  123.209087624057  12.700000000000  1  # C
 0.094632749657  126.025290943931  12.700000000000  1  # C
 1.347961305723  125.332975363203  12.700000000000  1  # C
 -1.185797203738  128.149178683077  12.700000000000  1  # C
 0.067531352327  127.456863102350  12.700000000000  1  # C
 -1.212898601068  129.580750841496  12.700000000000  1  # C
 57.632676460460  34.745059157797  12.700000000000  1  # C
 56.352246507065  36.868946896944  12.700000000000  1  # C
 57.605575063131  36.176631316216  12.700000000000  1  # C
 55.071816553669  38.992834636090  12.700000000000  1  # C
 56.325145109735  38.300519055363  12.700000000000  1  # C
 53.791386600274  41.116722375237  12.700000000000  1  # C
 55.044715156340  40.424406794509  12.700000000000  1  # C
 52.510956646879  43.240610114383  12.700000000000  1  # C
 53.764285202944  42.548294533655  12.700000000000  1  # C
 51.230526693483  45.364497853529  12.700000000000  1  # C
 52.483855249549  44.672182272802  12.700000000000  1  # C
 49.950096740088  47.488385592676  12.700000000000  1  # C
 51.203425296153  46.796070011948  12.700000000000  1  # C
 48.669666786692  49.612273331822  12.700000000000  1  # C
 49.922995342758  48.919957751095  12.700000000000  1  # C
 47.389236833297  51.736161070969  12.700000000000  1  # C
 48.642565389362  51.043845490241  12.700000000000  1  # C
 46.108806879901  53.860048810115  12.700000000000  1  # C
 47.362135435967  53.167733229388  12.700000000000  1  # C
 44.828376926506  55.983936549262  12.700000000000  1  # C
 46.081705482571  55.291620968534  12.700000000000  1  # C
 43.547946973110  58.107824288408  12.700000000000  1  # C
 44.801275529176  57.415508707681  12.700000000000  1  # C
 42.267517019715  60.231712027555  12.700000000000  1  # C
 43.520845575780  59.539396446827  12.700000000000  1  # C
 40.987087066319  62.355599766701  12.700000000000  1  # C
 42.240415622385  61.663284185974  12.700000000000  1  # C
 39.706657112924  64.479487505848  12.700000000000  1  # C
 40.959985668989  63.787171925120  12.700000000000  1  # C
 38.426227159528  66.603375244994  12.700000000000  1  # C
 39.679555715594  65.911059664267  12.700000000000  1  # C
 37.145797206133  68.727262984140  12.700000000000  1  # C
 38.399125762198  68.034947403413  12.700000000000  1  # C
 35.865367252737  70.851150723287  12.700000000000  1  # C
 37.118695808803  70.158835142559  12.700000000000  1  # C
 34.584937299342  72.975038462433  12.700000000000  1  # C
 35.838265855407  72.282722881706  12.700000000000  1  # C
 33.304507345946  75.098926201580  12.700000000000  1  # C
 34.557835902012  74.406610620852  12.700000000000  1  # C
 32.024077392551  77.222813940726  12.700000000000  1  # C
 33.277405948616  76.530498359999  12.700000000000  1  # C
 30.743647439155  79.346701679873  12.700000000000  1  # C
 31.996975995221  78.654386099145  12.700000000000  1  # C
 29.463217485760  81.470589419019  12.700000000000  1  # C
 30.716546041825  80.778273838292  12.700000000000  1  # C
 28.182787532364  83.594477158166  12.700000000000  1  # C
 29.436116088430  82.902161577438  12.700000000000  1  # C
 26.902357578969  85.718364897312  12.700000000000  1  # C
 28.155686135034  85.026049316585  12.700000000000  1  # C
 25.621927625573  87.842252636459  12.700000000000  1  # C
 26.875256181639  87.149937055731  12.700000000000  1  # C
 24.341497672178  89.966140375605  12.700000000000  1  # C
 25.594826228243  89.273824794877  12.700000000000  1  # C
 23.061067718782  92.090028114751  12.700000000000  1  # C
 24.314396274848  91.397712534024  12.700000000000  1  # C
 21.780637765387  94.213915853898  12.700000000000  1  # C
 23.033966321452  93.521600273170  12.700000000000  1  # C
 20.500207811991  96.337803593044  12.700000000000  1  # C
 21.753536368057  95.645488012317  12.700000000000  1  # C
 19.219777858596  98.461691332191  12.700000000000  1  # C
 20.473106414662  97.769375751463  12.700000000000  1  # C
 17.939347905200  100.585579071337  12.700000000000  1  # C
 19.192676461266  99.893263490610  12.700000000000  1  # C
 16.658917951805  102.709466810484  12.700000000000  1  # C
 17.912246507871  102.017151229756  12.700000000000  1  # C
 15.378487998409  104.833354549630  12.700000000000  1  # C
 16.631816554475  104.141038968903  12.700000000000  1  # C
 14.098058045014  106.957242288777  12.700000000000  1  # C
 15.351386601080  106.264926708049  12.700000000000  1  # C
 12.817628091618  109.081130027923  12.700000000000  1  # C
 14.070956647684  108.388814447196  12.700000000000  1  # C
 11.537198138223  111.205017767070  12.700000000000  1  # C
 12.790526694289  110.512702186342  12.700000000000  1  # C
 10.256768184828  113.328905506216  12.700000000000  1  # C
 11.510096740893  112.636589925489  12.700000000000  1  # C
 8.976338231432  115.452793245362  12.700000000000  1  # C
 10.229666787498  114.760477664635  12.700000000000  1  # C
 7.695908278037  117.576680984509  12.700000000000  1  # C
 8.949236834102  116.884365403781  12.700000000000  1  # C
 6.415478324641  119.700568723655  12.700000000000  1  # C
 7.668806880707  119.008253142928  12.700000000000  1  # C
 5.135048371246  121.824456462802  12.700000000000  1  # C
 6.388376927311  121.132140882074  12.700000000000  1  # C
 3.854618417850  123.948344201948  12.700000000000  1  # C
 5.107946973916  123.256028621221  12.700000000000  1  # C
 2.574188464455  126.072231941095  12.700000000000  1  # C
 3.827517020520  125.379916360367  12.700000000000  1  # C
 1.293758511059  128.196119680241  12.700000000000  1  # C
 2.547087067125  127.503804099514  12.700000000000  1  # C
 0.013328557664  130.320007419388  12.700000000000  1  # C
 1.266657113729  129.627691838660  12.700000000000  1  # C
 58.831802221863  36.915887894108  12.700000000000  1  # C
 60.085130777928  36.223572313380  12.700000000000  1  # C
 57.551372268467  39.039775633254  12.700000000000  1  # C
 58.804700824533  38.347460052527  12.700000000000  1  # C
 56.270942315072  41.163663372400  12.700000000000  1  # C
 57.524270871137  40.471347791673  12.700000000000  1  # C
 54.990512361676  43.287551111547  12.700000000000  1  # C
 56.243840917742  42.595235530819  12.700000000000  1  # C
 53.710082408281  45.411438850693  12.700000000000  1  # C
 54.963410964346  44.719123269966  12.700000000000  1  # C
 52.429652454885  47.535326589840  12.700000000000  1  # C
 53.682981010951  46.843011009112  12.700000000000  1  # C
 51.149222501490  49.659214328986  12.700000000000  1  # C
 52.402551057555  48.966898748259  12.700000000000  1  # C
 49.868792548094  51.783102068133  12.700000000000  1  # C
 51.122121104160  51.090786487405  12.700000000000  1  # C
 48.588362594699  53.906989807279  12.700000000000  1  # C
 49.841691150764  53.214674226552  12.700000000000  1  # C
 47.307932641303  56.030877546426  12.700000000000  1  # C
 48.561261197369  55.338561965698  12.700000000000  1  # C
 46.027502687908  58.154765285572  12.700000000000  1  # C
 47.280831243973  57.462449704845  12.700000000000  1  # C
 44.747072734512  60.278653024719  12.700000000000  1  # C
 46.000401290578  59.586337443991  12.700000000000  1  # C
 43.466642781117  62.402540763865  12.700000000000  1  # C
 44.719971337182  61.710225183138  12.700000000000  1  # C
 42.186212827721  64.526428503011  12.700000000000  1  # C
 43.439541383787  63.834112922284  12.700000000000  1  # C
 40.905782874326  66.650316242158  12.700000000000  1  # C
 42.159111430391  65.958000661430  12.700000000000  1  # C
 39.625352920930  68.774203981304  12.700000000000  1  # C
 40.878681476996  68.081888400577  12.700000000000  1  # C
 38.344922967535  70.898091720451  12.700000000000  1  # C
 39.598251523600  70.205776139723  12.700000000000  1  # C
 37.064493014139  73.021979459597  12.700000000000  1  # C
 38.317821570205  72.329663878870  12.700000000000  1  # C
 35.784063060744  75.145867198744  12.700000000000  1  # C
 37.037391616809  74.453551618016  12.700000000000  1  # C
 34.503633107348  77.269754937890  12.700000000000  1  # C
 35.756961663414  76.577439357163  12.700000000000  1  # C
 33.223203153953  79.393642677037  12.700000000000  1  # C
 34.476531710018  78.701327096309  12.700000000000  1  # C
 31.942773200557  81.517530416183  12.700000000000  1  # C
 33.196101756623  80.825214835456  12.700000000000  1  # C
 30.662343247162  83.641418155330  12.700000000000  1  # C
 31.915671803227  82.949102574602  12.700000000000  1  # C
 29.381913293766  85.765305894476  12.700000000000  1  # C
 30.635241849832  85.072990313749  12.700000000000  1  # C
 28.101483340371  87.889193633622  12.700000000000  1  # C
 29.354811896437  87.196878052895  12.700000000000  1  # C
 26.821053386975  90.013081372769  12.700000000000  1  # C
 28.074381943041  89.320765792041  12.700000000000  1  # C
 25.540623433580  92.136969111915  12.700000000000  1  # C
 26.793951989646  91.444653531188  12.700000000000  1  # C
 24.260193480184  94.260856851062  12.700000000000  1  # C
 25.513522036250  93.568541270334  12.700000000000  1  # C
 22.979763526789  96.384744590208  12.700000000000  1  # C
 24.233092082855  95.692429009481  12.700000000000  1  # C
 21.699333573393  98.508632329355  12.700000000000  1  # C
 22.952662129459  97.816316748627  12.700000000000  1  # C
 20.418903619998  100.632520068501  12.700000000000  1  # C
 21.672232176064  99.940204487774  12.700000000000  1  # C
 19.138473666603  102.756407807648  12.700000000000  1  # C
 20.391802222668  102.064092226920  12.700000000000  1  # C
 17.858043713207  104.880295546794  12.700000000000  1  # C
 19.111372269273  104.187979966067  12.700000000000  1  # C
 16.577613759812  107.004183285941  12.700000000000  1  # C
 17.830942315877  106.311867705213  12.700000000000  1  # C
 15.297183806416  109.128071025087  12.700000000000  1  # C
 16.550512362482  108.435755444360  12.700000000000  1  # C
 14.016753853021  111.251958764233  12.700000000000  1  # C
 15.270082409086  110.559643183506  12.700000000000  1  # C
 12.736323899625  113.375846503380  12.700000000000  1  # C
 13.989652455691  112.683530922652  12.700000000000  1  # C
 11.455893946230  115.499734242526  12.700000000000  1  # C
 12.709222502295  114.807418661799  12.700000000000  1  # C
 10.175463992834  117.623621981673  12.700000000000  1  # C
 11.428792548900  116.931306400945  12.700000000000  1  # C
 8.895034039439  119.747509720819  12.700000000000  1  # C
 10.148362595504  119.055194140092  12.700000000000  1  # C
 7.614604086043  121.871397459966  12.700000000000  1  # C
 8.867932642109  121.179081879238  12.700000000000  1  # C
 6.334174132648  123.995285199112  12.700000000000  1  # C
 7.587502688713  123.302969618385  12.700000000000  1  # C
 5.053744179252  126.119172938259  12.700000000000  1  # C
 6.307072735318  125.426857357531  12.700000000000  1  # C
 3.773314225857  128.243060677405  12.700000000000  1  # C
 5.026642781922  127.550745096678  12.700000000000  1  # C
 2.492884272461  130.366948416552  12.700000000000  1  # C
 3.746212828527  129.674632835824  12.700000000000  1  # C
 2.465782875131  131.798520574970  12.700000000000  1  # C
 61.311357936660  36.962828891271  12.700000000000  1  # C
 60.030927983265  39.086716630418  12.700000000000  1  # C
 61.284256539330  38.394401049690  12.700000000000  1  # C
 58.750498029869  41.210604369564  12.700000000000  1  # C
 60.003826585935  40.518288788837  12.700000000000  1  # C
 57.470068076474  43.334492108711  12.700000000000  1  # C
 58.723396632539  42.642176527983  12.700000000000  1  # C
 56.189638123078  45.458379847857  12.700000000000  1  # C
 57.442966679144  44.766064267130  12.700000000000  1  # C
 54.909208169683  47.582267587004  12.700000000000  1  # C
 56.162536725748  46.889952006276  12.700000000000  1  # C
 53.628778216287  49.706155326150  12.700000000000  1  # C
 54.882106772353  49.013839745423  12.700000000000  1  # C
 52.348348262892  51.830043065297  12.700000000000  1  # C
 53.601676818957  51.137727484569  12.700000000000  1  # C
 51.067918309496  53.953930804443  12.700000000000  1  # C
 52.321246865562  53.261615223716  12.700000000000  1  # C
 49.787488356101  56.077818543590  12.700000000000  1  # C
 51.040816912166  55.385502962862  12.700000000000  1  # C
 48.507058402705  58.201706282736  12.700000000000  1  # C
 49.760386958771  57.509390702009  12.700000000000  1  # C
 47.226628449310  60.325594021882  12.700000000000  1  # C
 48.479957005375  59.633278441155  12.700000000000  1  # C
 45.946198495914  62.449481761029  12.700000000000  1  # C
 47.199527051980  61.757166180301  12.700000000000  1  # C
 44.665768542519  64.573369500175  12.700000000000  1  # C
 45.919097098584  63.881053919448  12.700000000000  1  # C
 43.385338589123  66.697257239322  12.700000000000  1  # C
 44.638667145189  66.004941658594  12.700000000000  1  # C
 42.104908635728  68.821144978468  12.700000000000  1  # C
 43.358237191793  68.128829397741  12.700000000000  1  # C
 40.824478682332  70.945032717615  12.700000000000  1  # C
 42.077807238398  70.252717136887  12.700000000000  1  # C
 39.544048728937  73.068920456761  12.700000000000  1  # C
 40.797377285002  72.376604876034  12.700000000000  1  # C
 38.263618775541  75.192808195908  12.700000000000  1  # C
 39.516947331607  74.500492615180  12.700000000000  1  # C
 36.983188822146  77.316695935054  12.700000000000  1  # C
 38.236517378212  76.624380354327  12.700000000000  1  # C
 35.702758868750  79.440583674201  12.700000000000  1  # C
 36.956087424816  78.748268093473  12.700000000000  1  # C
 34.422328915355  81.564471413347  12.700000000000  1  # C
 35.675657471421  80.872155832620  12.700000000000  1  # C
 33.141898961959  83.688359152493  12.700000000000  1  # C
 34.395227518025  82.996043571766  12.700000000000  1  # C
 31.861469008564  85.812246891640  12.700000000000  1  # C
 33.114797564630  85.119931310912  12.700000000000  1  # C
 30.581039055168  87.936134630786  12.700000000000  1  # C
 31.834367611234  87.243819050059  12.700000000000  1  # C
 29.300609101773  90.060022369933  12.700000000000  1  # C
 30.553937657839  89.367706789205  12.700000000000  1  # C
 28.020179148378  92.183910109079  12.700000000000  1  # C
 29.273507704443  91.491594528352  12.700000000000  1  # C
 26.739749194982  94.307797848226  12.700000000000  1  # C
 27.993077751048  93.615482267498  12.700000000000  1  # C
 25.459319241587  96.431685587372  12.700000000000  1  # C
 26.712647797652  95.739370006645  12.700000000000  1  # C
 24.178889288191  98.555573326519  12.700000000000  1  # C
 25.432217844257  97.863257745791  12.700000000000  1  # C
 22.898459334796  100.679461065665  12.700000000000  1  # C
 24.151787890861  99.987145484938  12.700000000000  1  # C
 21.618029381400  102.803348804812  12.700000000000  1  # C
 22.871357937466  102.111033224084  12.700000000000  1  # C
 20.337599428005  104.927236543958  12.700000000000  1  # C
 21.590927984070  104.234920963231  12.700000000000  1  # C
 19.057169474609  107.051124283104  12.700000000000  1  # C
 20.310498030675  106.358808702377  12.700000000000  1  # C
 17.776739521214  109.175012022251  12.700000000000  1  # C
 19.030068077279  108.482696441523  12.700000000000  1  # C
 16.496309567818  111.298899761397  12.700000000000  1  # C
 17.749638123884  110.606584180670  12.700000000000  1  # C
 15.215879614423  113.422787500544  12.700000000000  1  # C
 16.469208170488  112.730471919816  12.700000000000  1  # C
 13.935449661027  115.546675239690  12.700000000000  1  # C
 15.188778217093  114.854359658963  12.700000000000  1  # C
 12.655019707632  117.670562978837  12.700000000000  1  # C
 13.908348263697  116.978247398109  12.700000000000  1  # C
 11.374589754236  119.794450717983  12.700000000000  1  # C
 12.627918310302  119.102135137256  12.700000000000  1  # C
 10.094159800841  121.918338457130  12.700000000000  1  # C
 11.347488356906  121.226022876402  12.700000000000  1  # C
 8.813729847445  124.042226196276  12.700000000000  1  # C
 10.067058403511  123.349910615549  12.700000000000  1  # C
 7.533299894050  126.166113935423  12.700000000000  1  # C
 8.786628450115  125.473798354695  12.700000000000  1  # C
 6.252869940654  128.290001674569  12.700000000000  1  # C
 7.506198496720  127.597686093842  12.700000000000  1  # C
 4.972439987259  130.413889413715  12.700000000000  1  # C
 6.225768543324  129.721573832988  12.700000000000  1  # C
 3.692010033863  132.537777152862  12.700000000000  1  # C
 4.945338589929  131.845461572134  12.700000000000  1  # C
 62.510483698062  39.133657627582  12.700000000000  1  # C
 63.763812254128  38.441342046854  12.700000000000  1  # C
 61.230053744667  41.257545366728  12.700000000000  1  # C
 62.483382300732  40.565229786001  12.700000000000  1  # C
 59.949623791271  43.381433105875  12.700000000000  1  # C
 61.202952347337  42.689117525147  12.700000000000  1  # C
 58.669193837876  45.505320845021  12.700000000000  1  # C
 59.922522393941  44.813005264294  12.700000000000  1  # C
 57.388763884480  47.629208584168  12.700000000000  1  # C
 58.642092440546  46.936893003440  12.700000000000  1  # C
 56.108333931085  49.753096323314  12.700000000000  1  # C
 57.361662487150  49.060780742587  12.700000000000  1  # C
 54.827903977689  51.876984062461  12.700000000000  1  # C
 56.081232533755  51.184668481733  12.700000000000  1  # C
 53.547474024294  54.000871801607  12.700000000000  1  # C
 54.800802580359  53.308556220880  12.700000000000  1  # C
 52.267044070898  56.124759540753  12.700000000000  1  # C
 53.520372626964  55.432443960026  12.700000000000  1  # C
 50.986614117503  58.248647279900  12.700000000000  1  # C
 52.239942673568  57.556331699172  12.700000000000  1  # C
 49.706184164107  60.372535019046  12.700000000000  1  # C
 50.959512720173  59.680219438319  12.700000000000  1  # C
 48.425754210712  62.496422758193  12.700000000000  1  # C
 49.679082766777  61.804107177465  12.700000000000  1  # C
 47.145324257316  64.620310497339  12.700000000000  1  # C
 48.398652813382  63.927994916612  12.700000000000  1  # C
 45.864894303921  66.744198236486  12.700000000000  1  # C
 47.118222859986  66.051882655758  12.700000000000  1  # C
 44.584464350525  68.868085975632  12.700000000000  1  # C
 45.837792906591  68.175770394905  12.700000000000  1  # C
 43.304034397130  70.991973714779  12.700000000000  1  # C
 44.557362953196  70.299658134051  12.700000000000  1  # C
 42.023604443734  73.115861453925  12.700000000000  1  # C
 43.276932999800  72.423545873198  12.700000000000  1  # C
 40.743174490339  75.239749193072  12.700000000000  1  # C
 41.996503046405  74.547433612344  12.700000000000  1  # C
 39.462744536943  77.363636932218  12.700000000000  1  # C
 40.716073093009  76.671321351491  12.700000000000  1  # C
 38.182314583548  79.487524671364  12.700000000000  1  # C
 39.435643139614  78.795209090637  12.700000000000  1  # C
 36.901884630152  81.611412410511  12.700000000000  1  # C
 38.155213186218  80.919096829783  12.700000000000  1  # C
 35.621454676757  83.735300149657  12.700000000000  1  # C
 36.874783232823  83.042984568930  12.700000000000  1  # C
 34.341024723362  85.859187888804  12.700000000000  1  # C
 35.594353279427  85.166872308076  12.700000000000  1  # C
 33.060594769966  87.983075627950  12.700000000000  1  # C
 34.313923326032  87.290760047223  12.700000000000  1  # C
 31.780164816571  90.106963367097  12.700000000000  1  # C
 33.033493372636  89.414647786369  12.700000000000  1  # C
 30.499734863175  92.230851106243  12.700000000000  1  # C
 31.753063419241  91.538535525516  12.700000000000  1  # C
 29.219304909780  94.354738845390  12.700000000000  1  # C
 30.472633465845  93.662423264662  12.700000000000  1  # C
 27.938874956384  96.478626584536  12.700000000000  1  # C
 29.192203512450  95.786311003809  12.700000000000  1  # C
 26.658445002989  98.602514323683  12.700000000000  1  # C
 27.911773559054  97.910198742955  12.700000000000  1  # C
 25.378015049593  100.726402062829  12.700000000000  1  # C
 26.631343605659  100.034086482102  12.700000000000  1  # C
 24.097585096198  102.850289801975  12.700000000000  1  # C
 25.350913652263  102.157974221248  12.700000000000  1  # C
 22.817155142802  104.974177541122  12.700000000000  1  # C
 24.070483698868  104.281861960394  12.700000000000  1  # C
 21.536725189407  107.098065280268  12.700000000000  1  # C
 22.790053745472  106.405749699541  12.700000000000  1  # C
 20.256295236011  109.221953019415  12.700000000000  1  # C
 21.509623792077  108.529637438687  12.700000000000  1  # C
 18.975865282616  111.345840758561  12.700000000000  1  # C
 20.229193838681  110.653525177834  12.700000000000  1  # C
 17.695435329220  113.469728497708  12.700000000000  1  # C
 18.948763885286  112.777412916980  12.700000000000  1  # C
 16.415005375825  115.593616236854  12.700000000000  1  # C
 17.668333931890  114.901300656127  12.700000000000  1  # C
 15.134575422429  117.717503976001  12.700000000000  1  # C
 16.387903978495  117.025188395273  12.700000000000  1  # C
 13.854145469034  119.841391715147  12.700000000000  1  # C
 15.107474025099  119.149076134420  12.700000000000  1  # C
 12.573715515638  121.965279454294  12.700000000000  1  # C
 13.827044071704  121.272963873566  12.700000000000  1  # C
 11.293285562243  124.089167193440  12.700000000000  1  # C
 12.546614118308  123.396851612713  12.700000000000  1  # C
 10.012855608847  126.213054932586  12.700000000000  1  # C
 11.266184164913  125.520739351859  12.700000000000  1  # C
 8.732425655452  128.336942671733  12.700000000000  1  # C
 9.985754211517  127.644627091005  12.700000000000  1  # C
 7.451995702056  130.460830410879  12.700000000000  1  # C
 8.705324258122  129.768514830152  12.700000000000  1  # C
 6.171565748661  132.584718150026  12.700000000000  1  # C
 7.424894304726  131.892402569298  12.700000000000  1  # C
 6.144464351331  134.016290308445  12.700000000000  1  # C
 64.990039412860  39.180598624746  12.700000000000  1  # C
 63.709609459464  41.304486363892  12.700000000000  1  # C
 64.962938015530  40.612170783165  12.700000000000  1  # C
 62.429179506069  43.428374103039  12.700000000000  1  # C
 63.682508062134  42.736058522311  12.700000000000  1  # C
 61.148749552673  45.552261842185  12.700000000000  1  # C
 62.402078108739  44.859946261458  12.700000000000  1  # C
 59.868319599278  47.676149581332  12.700000000000  1  # C
 61.121648155343  46.983834000604  12.700000000000  1  # C
 58.587889645882  49.800037320478  12.700000000000  1  # C
 59.841218201948  49.107721739751  12.700000000000  1  # C
 57.307459692487  51.923925059624  12.700000000000  1  # C
 58.560788248552  51.231609478897  12.700000000000  1  # C
 56.027029739091  54.047812798771  12.700000000000  1  # C
 57.280358295157  53.355497218043  12.700000000000  1  # C
 54.746599785696  56.171700537917  12.700000000000  1  # C
 55.999928341761  55.479384957190  12.700000000000  1  # C
 53.466169832300  58.295588277064  12.700000000000  1  # C
 54.719498388366  57.603272696336  12.700000000000  1  # C
 52.185739878905  60.419476016210  12.700000000000  1  # C
 53.439068434971  59.727160435483  12.700000000000  1  # C
 50.905309925509  62.543363755357  12.700000000000  1  # C
 52.158638481575  61.851048174629  12.700000000000  1  # C
 49.624879972114  64.667251494503  12.700000000000  1  # C
 50.878208528180  63.974935913776  12.700000000000  1  # C
 48.344450018718  66.791139233650  12.700000000000  1  # C
 49.597778574784  66.098823652922  12.700000000000  1  # C
 47.064020065323  68.915026972796  12.700000000000  1  # C
 48.317348621389  68.222711392069  12.700000000000  1  # C
 45.783590111927  71.038914711943  12.700000000000  1  # C
 47.036918667993  70.346599131215  12.700000000000  1  # C
 44.503160158532  73.162802451089  12.700000000000  1  # C
 45.756488714598  72.470486870362  12.700000000000  1  # C
 43.222730205137  75.286690190235  12.700000000000  1  # C
 44.476058761202  74.594374609508  12.700000000000  1  # C
 41.942300251741  77.410577929382  12.700000000000  1  # C
 43.195628807807  76.718262348654  12.700000000000  1  # C
 40.661870298346  79.534465668528  12.700000000000  1  # C
 41.915198854411  78.842150087801  12.700000000000  1  # C
 39.381440344950  81.658353407675  12.700000000000  1  # C
 40.634768901016  80.966037826947  12.700000000000  1  # C
 38.101010391555  83.782241146821  12.700000000000  1  # C
 39.354338947620  83.089925566094  12.700000000000  1  # C
 36.820580438159  85.906128885968  12.700000000000  1  # C
 38.073908994225  85.213813305240  12.700000000000  1  # C
 35.540150484764  88.030016625114  12.700000000000  1  # C
 36.793479040829  87.337701044387  12.700000000000  1  # C
 34.259720531368  90.153904364261  12.700000000000  1  # C
 35.513049087434  89.461588783533  12.700000000000  1  # C
 32.979290577973  92.277792103407  12.700000000000  1  # C
 34.232619134038  91.585476522680  12.700000000000  1  # C
 31.698860624577  94.401679842554  12.700000000000  1  # C
 32.952189180643  93.709364261826  12.700000000000  1  # C
 30.418430671182  96.525567581700  12.700000000000  1  # C
 31.671759227247  95.833252000973  12.700000000000  1  # C
 29.138000717786  98.649455320846  12.700000000000  1  # C
 30.391329273852  97.957139740119  12.700000000000  1  # C
 27.857570764391  100.773343059993  12.700000000000  1  # C
 29.110899320456  100.081027479265  12.700000000000  1  # C
 26.577140810995  102.897230799139  12.700000000000  1  # C
 27.830469367061  102.204915218412  12.700000000000  1  # C
 25.296710857600  105.021118538286  12.700000000000  1  # C
 26.550039413665  104.328802957558  12.700000000000  1  # C
 24.016280904204  107.145006277432  12.700000000000  1  # C
 25.269609460270  106.452690696705  12.700000000000  1  # C
 22.735850950809  109.268894016579  12.700000000000  1  # C
 23.989179506874  108.576578435851  12.700000000000  1  # C
 21.455420997413  111.392781755725  12.700000000000  1  # C
 22.708749553479  110.700466174998  12.700000000000  1  # C
 20.174991044018  113.516669494872  12.700000000000  1  # C
 21.428319600083  112.824353914144  12.700000000000  1  # C
 18.894561090622  115.640557234018  12.700000000000  1  # C
 20.147889646688  114.948241653291  12.700000000000  1  # C
 17.614131137227  117.764444973165  12.700000000000  1  # C
 18.867459693292  117.072129392437  12.700000000000  1  # C
 16.333701183831  119.888332712311  12.700000000000  1  # C
 17.587029739897  119.196017131584  12.700000000000  1  # C
 15.053271230436  122.012220451457  12.700000000000  1  # C
 16.306599786501  121.319904870730  12.700000000000  1  # C
 13.772841277040  124.136108190604  12.700000000000  1  # C
 15.026169833106  123.443792609876  12.700000000000  1  # C
 12.492411323645  126.259995929750  12.700000000000  1  # C
 13.745739879710  125.567680349023  12.700000000000  1  # C
 11.211981370249  128.383883668897  12.700000000000  1  # C
 12.465309926315  127.691568088169  12.700000000000  1  # C
 9.931551416854  130.507771408043  12.700000000000  1  # C
 11.184879972920  129.815455827316  12.700000000000  1  # C
 8.651121463458  132.631659147190  12.700000000000  1  # C
 9.904450019524  131.939343566462  12.700000000000  1  # C
 7.370691510063  134.755546886336  12.700000000000  1  # C
 8.624020066129  134.063231305609  12.700000000000  1  # C
 66.189165174262  41.351427361056  12.700000000000  1  # C
 67.442493730327  40.659111780329  12.700000000000  1  # C
 64.908735220866  43.475315100203  12.700000000000  1  # C
 66.162063776932  42.782999519475  12.700000000000  1  # C
 63.628305267471  45.599202839349  12.700000000000  1  # C
 64.881633823536  44.906887258622  12.700000000000  1  # C
 62.347875314075  47.723090578495  12.700000000000  1  # C
 63.601203870141  47.030774997768  12.700000000000  1  # C
 61.067445360680  49.846978317642  12.700000000000  1  # C
 62.320773916745  49.154662736914  12.700000000000  1  # C
 59.787015407284  51.970866056788  12.700000000000  1  # C
 61.040343963350  51.278550476061  12.700000000000  1  # C
 58.506585453889  54.094753795935  12.700000000000  1  # C
 59.759914009955  53.402438215207  12.700000000000  1  # C
 57.226155500493  56.218641535081  12.700000000000  1  # C
 58.479484056559  55.526325954354  12.700000000000  1  # C
 55.945725547098  58.342529274228  12.700000000000  1  # C
 57.199054103164  57.650213693500  12.700000000000  1  # C
 54.665295593702  60.466417013374  12.700000000000  1  # C
 55.918624149768  59.774101432647  12.700000000000  1  # C
 53.384865640307  62.590304752521  12.700000000000  1  # C
 54.638194196373  61.897989171793  12.700000000000  1  # C
 52.104435686911  64.714192491667  12.700000000000  1  # C
 53.357764242977  64.021876910940  12.700000000000  1  # C
 50.824005733516  66.838080230814  12.700000000000  1  # C
 52.077334289582  66.145764650086  12.700000000000  1  # C
 49.543575780121  68.961967969960  12.700000000000  1  # C
 50.796904336186  68.269652389233  12.700000000000  1  # C
 48.263145826725  71.085855709106  12.700000000000  1  # C
 49.516474382791  70.393540128379  12.700000000000  1  # C
 46.982715873330  73.209743448253  12.700000000000  1  # C
 48.236044429395  72.517427867525  12.700000000000  1  # C
 45.702285919934  75.333631187399  12.700000000000  1  # C
 46.955614476000  74.641315606672  12.700000000000  1  # C
 44.421855966539  77.457518926546  12.700000000000  1  # C
 45.675184522604  76.765203345818  12.700000000000  1  # C
 43.141426013143  79.581406665692  12.700000000000  1  # C
 44.394754569209  78.889091084965  12.700000000000  1  # C
 41.860996059748  81.705294404839  12.700000000000  1  # C
 43.114324615813  81.012978824111  12.700000000000  1  # C
 40.580566106352  83.829182143985  12.700000000000  1  # C
 41.833894662418  83.136866563258  12.700000000000  1  # C
 39.300136152957  85.953069883132  12.700000000000  1  # C
 40.553464709022  85.260754302404  12.700000000000  1  # C
 38.019706199561  88.076957622278  12.700000000000  1  # C
 39.273034755627  87.384642041551  12.700000000000  1  # C
 36.739276246166  90.200845361425  12.700000000000  1  # C
 37.992604802231  89.508529780697  12.700000000000  1  # C
 35.458846292770  92.324733100571  12.700000000000  1  # C
 36.712174848836  91.632417519844  12.700000000000  1  # C
 34.178416339375  94.448620839717  12.700000000000  1  # C
 35.431744895440  93.756305258990  12.700000000000  1  # C
 32.897986385979  96.572508578864  12.700000000000  1  # C
 34.151314942045  95.880192998136  12.700000000000  1  # C
 31.617556432584  98.696396318010  12.700000000000  1  # C
 32.870884988649  98.004080737283  12.700000000000  1  # C
 30.337126479188  100.820284057157  12.700000000000  1  # C
 31.590455035254  100.127968476429  12.700000000000  1  # C
 29.056696525793  102.944171796303  12.700000000000  1  # C
 30.310025081858  102.251856215576  12.700000000000  1  # C
 27.776266572397  105.068059535450  12.700000000000  1  # C
 29.029595128463  104.375743954722  12.700000000000  1  # C
 26.495836619002  107.191947274596  12.700000000000  1  # C
 27.749165175067  106.499631693869  12.700000000000  1  # C
 25.215406665606  109.315835013743  12.700000000000  1  # C
 26.468735221672  108.623519433015  12.700000000000  1  # C
 23.934976712211  111.439722752889  12.700000000000  1  # C
 25.188305268276  110.747407172162  12.700000000000  1  # C
 22.654546758815  113.563610492036  12.700000000000  1  # C
 23.907875314881  112.871294911308  12.700000000000  1  # C
 21.374116805420  115.687498231182  12.700000000000  1  # C
 22.627445361485  114.995182650455  12.700000000000  1  # C
 20.093686852024  117.811385970328  12.700000000000  1  # C
 21.347015408090  117.119070389601  12.700000000000  1  # C
 18.813256898629  119.935273709475  12.700000000000  1  # C
 20.066585454695  119.242958128747  12.700000000000  1  # C
 17.532826945233  122.059161448621  12.700000000000  1  # C
 18.786155501299  121.366845867894  12.700000000000  1  # C
 16.252396991838  124.183049187768  12.700000000000  1  # C
 17.505725547904  123.490733607040  12.700000000000  1  # C
 14.971967038442  126.306936926914  12.700000000000  1  # C
 16.225295594508  125.614621346187  12.700000000000  1  # C
 13.691537085047  128.430824666061  12.700000000000  1  # C
 14.944865641113  127.738509085333  12.700000000000  1  # C
 12.411107131651  130.554712405207  12.700000000000  1  # C
 13.664435687717  129.862396824480  12.700000000000  1  # C
 11.130677178256  132.678600144354  12.700000000000  1  # C
 12.384005734322  131.986284563626  12.700000000000  1  # C
 9.850247224861  134.802487883500  12.700000000000  1  # C
 11.103575780926  134.110172302773  12.700000000000  1  # C
 9.823145827531  136.234060041919  12.700000000000  1  # C
 68.668720889059  41.398368358220  12.700000000000  1  # C
 67.388290935664  43.522256097367  12.700000000000  1  # C
 68.641619491730  42.829940516639  12.700000000000  1  # C
 66.107860982268  45.646143836513  12.700000000000  1  # C
 67.361189538334  44.953828255785  12.700000000000  1  # C
 64.827431028873  47.770031575659  12.700000000000  1  # C
 66.080759584939  47.077715994932  12.700000000000  1  # C
 63.547001075477  49.893919314806  12.700000000000  1  # C
 64.800329631543  49.201603734078  12.700000000000  1  # C
 62.266571122082  52.017807053952  12.700000000000  1  # C
 63.519899678148  51.325491473225  12.700000000000  1  # C
 60.986141168686  54.141694793099  12.700000000000  1  # C
 62.239469724752  53.449379212371  12.700000000000  1  # C
 59.705711215291  56.265582532245  12.700000000000  1  # C
 60.959039771357  55.573266951518  12.700000000000  1  # C
 58.425281261896  58.389470271392  12.700000000000  1  # C
 59.678609817961  57.697154690664  12.700000000000  1  # C
 57.144851308500  60.513358010538  12.700000000000  1  # C
 58.398179864566  59.821042429811  12.700000000000  1  # C
 55.864421355105  62.637245749685  12.700000000000  1  # C
 57.117749911170  61.944930168957  12.700000000000  1  # C
 54.583991401709  64.761133488831  12.700000000000  1  # C
 55.837319957775  64.068817908104  12.700000000000  1  # C
 53.303561448314  66.885021227977  12.700000000000  1  # C
 54.556890004379  66.192705647250  12.700000000000  1  # C
 52.023131494918  69.008908967124  12.700000000000  1  # C
 53.276460050984  68.316593386396  12.700000000000  1  # C
 50.742701541523  71.132796706270  12.700000000000  1  # C
 51.996030097588  70.440481125543  12.700000000000  1  # C
 49.462271588127  73.256684445417  12.700000000000  1  # C
 50.715600144193  72.564368864689  12.700000000000  1  # C
 48.181841634732  75.380572184563  12.700000000000  1  # C
 49.435170190797  74.688256603836  12.700000000000  1  # C
 46.901411681336  77.504459923710  12.700000000000  1  # C
 48.154740237402  76.812144342982  12.700000000000  1  # C
 45.620981727941  79.628347662856  12.700000000000  1  # C
 46.874310284006  78.936032082129  12.700000000000  1  # C
 44.340551774545  81.752235402003  12.700000000000  1  # C
 45.593880330611  81.059919821275  12.700000000000  1  # C
 43.060121821150  83.876123141149  12.700000000000  1  # C
 44.313450377215  83.183807560422  12.700000000000  1  # C
 41.779691867754  86.000010880296  12.700000000000  1  # C
 43.033020423820  85.307695299568  12.700000000000  1  # C
 40.499261914359  88.123898619442  12.700000000000  1  # C
 41.752590470424  87.431583038715  12.700000000000  1  # C
 39.218831960963  90.247786358589  12.700000000000  1  # C
 40.472160517029  89.555470777861  12.700000000000  1  # C
 37.938402007568  92.371674097735  12.700000000000  1  # C
 39.191730563633  91.679358517007  12.700000000000  1  # C
 36.657972054172  94.495561836881  12.700000000000  1  # C
 37.911300610238  93.803246256154  12.700000000000  1  # C
 35.377542100777  96.619449576028  12.700000000000  1  # C
 36.630870656842  95.927133995300  12.700000000000  1  # C
 34.097112147381  98.743337315174  12.700000000000  1  # C
 35.350440703447  98.051021734447  12.700000000000  1  # C
 32.816682193986  100.867225054321  12.700000000000  1  # C
 34.070010750051  100.174909473593  12.700000000000  1  # C
 31.536252240590  102.991112793467  12.700000000000  1  # C
 32.789580796656  102.298797212740  12.700000000000  1  # C
 30.255822287195  105.115000532614  12.700000000000  1  # C
 31.509150843260  104.422684951886  12.700000000000  1  # C
 28.975392333799  107.238888271760  12.700000000000  1  # C
 30.228720889865  106.546572691033  12.700000000000  1  # C
 27.694962380404  109.362776010907  12.700000000000  1  # C
 28.948290936469  108.670460430179  12.700000000000  1  # C
 26.414532427008  111.486663750053  12.700000000000  1  # C
 27.667860983074  110.794348169326  12.700000000000  1  # C
 25.134102473613  113.610551489200  12.700000000000  1  # C
 26.387431029679  112.918235908472  12.700000000000  1  # C
 23.853672520217  115.734439228346  12.700000000000  1  # C
 25.107001076283  115.042123647618  12.700000000000  1  # C
 22.573242566822  117.858326967492  12.700000000000  1  # C
 23.826571122888  117.166011386765  12.700000000000  1  # C
 21.292812613426  119.982214706639  12.700000000000  1  # C
 22.546141169492  119.289899125911  12.700000000000  1  # C
 20.012382660031  122.106102445785  12.700000000000  1  # C
 21.265711216097  121.413786865058  12.700000000000  1  # C
 18.731952706636  124.229990184932  12.700000000000  1  # C
 19.985281262701  123.537674604204  12.700000000000  1  # C
 17.451522753240  126.353877924078  12.700000000000  1  # C
 18.704851309306  125.661562343351  12.700000000000  1  # C
 16.171092799845  128.477765663225  12.700000000000  1  # C
 17.424421355910  127.785450082497  12.700000000000  1  # C
 14.890662846449  130.601653402371  12.700000000000  1  # C
 16.143991402515  129.909337821644  12.700000000000  1  # C
 13.610232893054  132.725541141518  12.700000000000  1  # C
 14.863561449119  132.033225560790  12.700000000000  1  # C
 12.329802939658  134.849428880664  12.700000000000  1  # C
 13.583131495724  134.157113299936  12.700000000000  1  # C
 11.049372986263  136.973316619811  12.700000000000  1  # C
 12.302701542328  136.281001039083  12.700000000000  1  # C
 69.867846650461  43.569197094530  12.700000000000  1  # C
 71.121175206527  42.876881513803  12.700000000000  1  # C
 68.587416697066  45.693084833677  12.700000000000  1  # C
 69.840745253132  45.000769252949  12.700000000000  1  # C
 67.306986743670  47.816972572823  12.700000000000  1  # C
 68.560315299736  47.124656992096  12.700000000000  1  # C
 66.026556790275  49.940860311970  12.700000000000  1  # C
 67.279885346341  49.248544731242  12.700000000000  1  # C
 64.746126836880  52.064748051116  12.700000000000  1  # C
 65.999455392945  51.372432470389  12.700000000000  1  # C
 63.465696883484  54.188635790263  12.700000000000  1  # C
 64.719025439550  53.496320209535  12.700000000000  1  # C
 62.185266930089  56.312523529409  12.700000000000  1  # C
 63.438595486154  55.620207948682  12.700000000000  1  # C
 60.904836976693  58.436411268556  12.700000000000  1  # C
 62.158165532759  57.744095687828  12.700000000000  1  # C
 59.624407023298  60.560299007702  12.700000000000  1  # C
 60.877735579363  59.867983426975  12.700000000000  1  # C
 58.343977069902  62.684186746849  12.700000000000  1  # C
 59.597305625968  61.991871166121  12.700000000000  1  # C
 57.063547116507  64.808074485995  12.700000000000  1  # C
 58.316875672572  64.115758905267  12.700000000000  1  # C
 55.783117163111  66.931962225141  12.700000000000  1  # C
 57.036445719177  66.239646644414  12.700000000000  1  # C
 54.502687209716  69.055849964288  12.700000000000  1  # C
 55.756015765781  68.363534383560  12.700000000000  1  # C
 53.222257256320  71.179737703434  12.700000000000  1  # C
 54.475585812386  70.487422122707  12.700000000000  1  # C
 51.941827302925  73.303625442581  12.700000000000  1  # C
 53.195155858990  72.611309861853  12.700000000000  1  # C
 50.661397349529  75.427513181727  12.700000000000  1  # C
 51.914725905595  74.735197601000  12.700000000000  1  # C
 49.380967396134  77.551400920874  12.700000000000  1  # C
 50.634295952199  76.859085340146  12.700000000000  1  # C
 48.100537442738  79.675288660020  12.700000000000  1  # C
 49.353865998804  78.982973079293  12.700000000000  1  # C
 46.820107489343  81.799176399167  12.700000000000  1  # C
 48.073436045408  81.106860818439  12.700000000000  1  # C
 45.539677535947  83.923064138313  12.700000000000  1  # C
 46.793006092013  83.230748557586  12.700000000000  1  # C
 44.259247582552  86.046951877460  12.700000000000  1  # C
 45.512576138617  85.354636296732  12.700000000000  1  # C
 42.978817629156  88.170839616606  12.700000000000  1  # C
 44.232146185222  87.478524035878  12.700000000000  1  # C
 41.698387675761  90.294727355752  12.700000000000  1  # C
 42.951716231826  89.602411775025  12.700000000000  1  # C
 40.417957722365  92.418615094899  12.700000000000  1  # C
 41.671286278431  91.726299514171  12.700000000000  1  # C
 39.137527768970  94.542502834045  12.700000000000  1  # C
 40.390856325035  93.850187253318  12.700000000000  1  # C
 37.857097815574  96.666390573192  12.700000000000  1  # C
 39.110426371640  95.974074992464  12.700000000000  1  # C
 36.576667862179  98.790278312338  12.700000000000  1  # C
 37.829996418244  98.097962731611  12.700000000000  1  # C
 35.296237908783  100.914166051485  12.700000000000  1  # C
 36.549566464849  100.221850470757  12.700000000000  1  # C
 34.015807955388  103.038053790631  12.700000000000  1  # C
 35.269136511454  102.345738209904  12.700000000000  1  # C
 32.735378001992  105.161941529778  12.700000000000  1  # C
 33.988706558058  104.469625949050  12.700000000000  1  # C
 31.454948048597  107.285829268924  12.700000000000  1  # C
 32.708276604663  106.593513688197  12.700000000000  1  # C
 30.174518095201  109.409717008070  12.700000000000  1  # C
 31.427846651267  108.717401427343  12.700000000000  1  # C
 28.894088141806  111.533604747217  12.700000000000  1  # C
 30.147416697872  110.841289166489  12.700000000000  1  # C
 27.613658188410  113.657492486363  12.700000000000  1  # C
 28.866986744476  112.965176905636  12.700000000000  1  # C
 26.333228235015  115.781380225510  12.700000000000  1  # C
 27.586556791081  115.089064644782  12.700000000000  1  # C
 25.052798281620  117.905267964656  12.700000000000  1  # C
 26.306126837685  117.212952383929  12.700000000000  1  # C
 23.772368328224  120.029155703803  12.700000000000  1  # C
 25.025696884290  119.336840123075  12.700000000000  1  # C
 22.491938374829  122.153043442949  12.700000000000  1  # C
 23.745266930894  121.460727862222  12.700000000000  1  # C
 21.211508421433  124.276931182096  12.700000000000  1  # C
 22.464836977499  123.584615601368  12.700000000000  1  # C
 19.931078468038  126.400818921242  12.700000000000  1  # C
 21.184407024103  125.708503340515  12.700000000000  1  # C
 18.650648514642  128.524706660389  12.700000000000  1  # C
 19.903977070708  127.832391079661  12.700000000000  1  # C
 17.370218561247  130.648594399535  12.700000000000  1  # C
 18.623547117312  129.956278818808  12.700000000000  1  # C
 16.089788607851  132.772482138681  12.700000000000  1  # C
 17.343117163917  132.080166557954  12.700000000000  1  # C
 14.809358654456  134.896369877828  12.700000000000  1  # C
 16.062687210521  134.204054297100  12.700000000000  1  # C
 13.528928701060  137.020257616974  12.700000000000  1  # C
 14.782257257126  136.327942036247  12.700000000000  1  # C
 13.501827303730  138.451829775393  12.700000000000  1  # C
 72.347402365259  43.616138091694  12.700000000000  1  # C
 71.066972411864  45.740025830841  12.700000000000  1  # C
 72.320300967929  45.047710250113  12.700000000000  1  # C
 69.786542458468  47.863913569987  12.700000000000  1  # C
 71.039871014534  47.171597989260  12.700000000000  1  # C
 68.506112505073  49.987801309134  12.700000000000  1  # C
 69.759441061138  49.295485728406  12.700000000000  1  # C
 67.225682551677  52.111689048280  12.700000000000  1  # C
 68.479011107743  51.419373467553  12.700000000000  1  # C
 65.945252598282  54.235576787427  12.700000000000  1  # C
 67.198581154347  53.543261206699  12.700000000000  1  # C
 64.664822644886  56.359464526573  12.700000000000  1  # C
 65.918151200952  55.667148945846  12.700000000000  1  # C
 63.384392691491  58.483352265720  12.700000000000  1  # C
 64.637721247556  57.791036684992  12.700000000000  1  # C
 62.103962738095  60.607240004866  12.700000000000  1  # C
 63.357291294161  59.914924424138  12.700000000000  1  # C
 60.823532784700  62.731127744012  12.700000000000  1  # C
 62.076861340765  62.038812163285  12.700000000000  1  # C
 59.543102831304  64.855015483159  12.700000000000  1  # C
 60.796431387370  64.162699902431  12.700000000000  1  # C
 58.262672877909  66.978903222305  12.700000000000  1  # C
 59.516001433974  66.286587641578  12.700000000000  1  # C
 56.982242924513  69.102790961452  12.700000000000  1  # C
 58.235571480579  68.410475380724  12.700000000000  1  # C
 55.701812971118  71.226678700598  12.700000000000  1  # C
 56.955141527183  70.534363119871  12.700000000000  1  # C
 54.421383017722  73.350566439745  12.700000000000  1  # C
 55.674711573788  72.658250859017  12.700000000000  1  # C
 53.140953064327  75.474454178891  12.700000000000  1  # C
 54.394281620392  74.782138598164  12.700000000000  1  # C
 51.860523110931  77.598341918038  12.700000000000  1  # C
 53.113851666997  76.906026337310  12.700000000000  1  # C
 50.580093157536  79.722229657184  12.700000000000  1  # C
 51.833421713601  79.029914076457  12.700000000000  1  # C
 49.299663204140  81.846117396331  12.700000000000  1  # C
 50.552991760206  81.153801815603  12.700000000000  1  # C
 48.019233250745  83.970005135477  12.700000000000  1  # C
 49.272561806810  83.277689554749  12.700000000000  1  # C
 46.738803297349  86.093892874623  12.700000000000  1  # C
 47.992131853415  85.401577293896  12.700000000000  1  # C
 45.458373343954  88.217780613770  12.700000000000  1  # C
 46.711701900019  87.525465033042  12.700000000000  1  # C
 44.177943390558  90.341668352916  12.700000000000  1  # C
 45.431271946624  89.649352772189  12.700000000000  1  # C
 42.897513437163  92.465556092063  12.700000000000  1  # C
 44.150841993229  91.773240511335  12.700000000000  1  # C
 41.617083483767  94.589443831209  12.700000000000  1  # C
 42.870412039833  93.897128250482  12.700000000000  1  # C
 40.336653530372  96.713331570356  12.700000000000  1  # C
 41.589982086438  96.021015989628  12.700000000000  1  # C
 39.056223576976  98.837219309502  12.700000000000  1  # C
 40.309552133042  98.144903728775  12.700000000000  1  # C
 37.775793623581  100.961107048649  12.700000000000  1  # C
 39.029122179647  100.268791467921  12.700000000000  1  # C
 36.495363670185  103.084994787795  12.700000000000  1  # C
 37.748692226251  102.392679207068  12.700000000000  1  # C
 35.214933716790  105.208882526942  12.700000000000  1  # C
 36.468262272856  104.516566946214  12.700000000000  1  # C
 33.934503763394  107.332770266088  12.700000000000  1  # C
 35.187832319460  106.640454685360  12.700000000000  1  # C
 32.654073809999  109.456658005234  12.700000000000  1  # C
 33.907402366065  108.764342424507  12.700000000000  1  # C
 31.373643856604  111.580545744381  12.700000000000  1  # C
 32.626972412669  110.888230163653  12.700000000000  1  # C
 30.093213903208  113.704433483527  12.700000000000  1  # C
 31.346542459274  113.012117902800  12.700000000000  1  # C
 28.812783949813  115.828321222674  12.700000000000  1  # C
 30.066112505878  115.136005641946  12.700000000000  1  # C
 27.532353996417  117.952208961820  12.700000000000  1  # C
 28.785682552483  117.259893381093  12.700000000000  1  # C
 26.251924043022  120.076096700967  12.700000000000  1  # C
 27.505252599087  119.383781120239  12.700000000000  1  # C
 24.971494089626  122.199984440113  12.700000000000  1  # C
 26.224822645692  121.507668859386  12.700000000000  1  # C
 23.691064136231  124.323872179260  12.700000000000  1  # C
 24.944392692296  123.631556598532  12.700000000000  1  # C
 22.410634182835  126.447759918406  12.700000000000  1  # C
 23.663962738901  125.755444337679  12.700000000000  1  # C
 21.130204229440  128.571647657552  12.700000000000  1  # C
 22.383532785505  127.879332076825  12.700000000000  1  # C
 19.849774276044  130.695535396699  12.700000000000  1  # C
 21.103102832110  130.003219815971  12.700000000000  1  # C
 18.569344322649  132.819423135845  12.700000000000  1  # C
 19.822672878714  132.127107555118  12.700000000000  1  # C
 17.288914369253  134.943310874992  12.700000000000  1  # C
 18.542242925319  134.250995294264  12.700000000000  1  # C
 16.008484415858  137.067198614138  12.700000000000  1  # C
 17.261812971923  136.374883033411  12.700000000000  1  # C
 14.728054462462  139.191086353285  12.700000000000  1  # C
 15.981383018528  138.498770772557  12.700000000000  1  # C
 73.546528126661  45.786966828005  12.700000000000  1  # C
 74.799856682727  45.094651247277  12.700000000000  1  # C
 72.266098173266  47.910854567151  12.700000000000  1  # C
 73.519426729331  47.218538986424  12.700000000000  1  # C
 70.985668219870  50.034742306298  12.700000000000  1  # C
 72.238996775936  49.342426725570  12.700000000000  1  # C
 69.705238266475  52.158630045444  12.700000000000  1  # C
 70.958566822540  51.466314464717  12.700000000000  1  # C
 68.424808313079  54.282517784591  12.700000000000  1  # C
 69.678136869145  53.590202203863  12.700000000000  1  # C
 67.144378359684  56.406405523737  12.700000000000  1  # C
 68.397706915749  55.714089943009  12.700000000000  1  # C
 65.863948406288  58.530293262883  12.700000000000  1  # C
 67.117276962354  57.837977682156  12.700000000000  1  # C
 64.583518452893  60.654181002030  12.700000000000  1  # C
 65.836847008958  59.961865421302  12.700000000000  1  # C
 63.303088499497  62.778068741176  12.700000000000  1  # C
 64.556417055563  62.085753160449  12.700000000000  1  # C
 62.022658546102  64.901956480323  12.700000000000  1  # C
 63.275987102167  64.209640899595  12.700000000000  1  # C
 60.742228592706  67.025844219469  12.700000000000  1  # C
 61.995557148772  66.333528638742  12.700000000000  1  # C
 59.461798639311  69.149731958616  12.700000000000  1  # C
 60.715127195376  68.457416377888  12.700000000000  1  # C
 58.181368685915  71.273619697762  12.700000000000  1  # C
 59.434697241981  70.581304117035  12.700000000000  1  # C
 56.900938732520  73.397507436909  12.700000000000  1  # C
 58.154267288585  72.705191856181  12.700000000000  1  # C
 55.620508779124  75.521395176055  12.700000000000  1  # C
 56.873837335190  74.829079595328  12.700000000000  1  # C
 54.340078825729  77.645282915202  12.700000000000  1  # C
 55.593407381794  76.952967334474  12.700000000000  1  # C
 53.059648872333  79.769170654348  12.700000000000  1  # C
 54.312977428399  79.076855073620  12.700000000000  1  # C
 51.779218918938  81.893058393494  12.700000000000  1  # C
 53.032547475003  81.200742812767  12.700000000000  1  # C
 50.498788965542  84.016946132641  12.700000000000  1  # C
 51.752117521608  83.324630551913  12.700000000000  1  # C
 49.218359012147  86.140833871787  12.700000000000  1  # C
 50.471687568213  85.448518291060  12.700000000000  1  # C
 47.937929058751  88.264721610934  12.700000000000  1  # C
 49.191257614817  87.572406030206  12.700000000000  1  # C
 46.657499105356  90.388609350080  12.700000000000  1  # C
 47.910827661422  89.696293769353  12.700000000000  1  # C
 45.377069151960  92.512497089227  12.700000000000  1  # C
 46.630397708026  91.820181508499  12.700000000000  1  # C
 44.096639198565  94.636384828373  12.700000000000  1  # C
 45.349967754631  93.944069247646  12.700000000000  1  # C
 42.816209245169  96.760272567520  12.700000000000  1  # C
 44.069537801235  96.067956986792  12.700000000000  1  # C
 41.535779291774  98.884160306666  12.700000000000  1  # C
 42.789107847840  98.191844725939  12.700000000000  1  # C
 40.255349338379  101.008048045813  12.700000000000  1  # C
 41.508677894444  100.315732465085  12.700000000000  1  # C
 38.974919384983  103.131935784959  12.700000000000  1  # C
 40.228247941049  102.439620204231  12.700000000000  1  # C
 37.694489431588  105.255823524105  12.700000000000  1  # C
 38.947817987653  104.563507943378  12.700000000000  1  # C
 36.414059478192  107.379711263252  12.700000000000  1  # C
 37.667388034258  106.687395682524  12.700000000000  1  # C
 35.133629524797  109.503599002398  12.700000000000  1  # C
 36.386958080862  108.811283421671  12.700000000000  1  # C
 33.853199571401  111.627486741545  12.700000000000  1  # C
 35.106528127467  110.935171160817  12.700000000000  1  # C
 32.572769618006  113.751374480691  12.700000000000  1  # C
 33.826098174071  113.059058899964  12.700000000000  1  # C
 31.292339664610  115.875262219838  12.700000000000  1  # C
 32.545668220676  115.182946639110  12.700000000000  1  # C
 30.011909711215  117.999149958984  12.700000000000  1  # C
 31.265238267280  117.306834378257  12.700000000000  1  # C
 28.731479757819  120.123037698131  12.700000000000  1  # C
 29.984808313885  119.430722117403  12.700000000000  1  # C
 27.451049804424  122.246925437277  12.700000000000  1  # C
 28.704378360489  121.554609856550  12.700000000000  1  # C
 26.170619851028  124.370813176424  12.700000000000  1  # C
 27.423948407094  123.678497595696  12.700000000000  1  # C
 24.890189897633  126.494700915570  12.700000000000  1  # C
 26.143518453698  125.802385334842  12.700000000000  1  # C
 23.609759944237  128.618588654716  12.700000000000  1  # C
 24.863088500303  127.926273073989  12.700000000000  1  # C
 22.329329990842  130.742476393863  12.700000000000  1  # C
 23.582658546907  130.050160813135  12.700000000000  1  # C
 21.048900037446  132.866364133009  12.700000000000  1  # C
 22.302228593512  132.174048552282  12.700000000000  1  # C
 19.768470084051  134.990251872156  12.700000000000  1  # C
 21.021798640116  134.297936291428  12.700000000000  1  # C
 18.488040130655  137.114139611302  12.700000000000  1  # C
 19.741368686721  136.421824030575  12.700000000000  1  # C
 17.207610177260  139.238027350449  12.700000000000  1  # C
 18.460938733325  138.545711769721  12.700000000000  1  # C
 17.180508779930  140.669599508868  12.700000000000  1  # C
 76.026083841459  45.833907825169  12.700000000000  1  # C
 74.745653888063  47.957795564315  12.700000000000  1  # C
 75.998982444129  47.265479983588  12.700000000000  1  # C
 73.465223934668  50.081683303462  12.700000000000  1  # C
 74.718552490733  49.389367722734  12.700000000000  1  # C
 72.184793981272  52.205571042608  12.700000000000  1  # C
 73.438122537338  51.513255461880  12.700000000000  1  # C
 70.904364027877  54.329458781754  12.700000000000  1  # C
 72.157692583942  53.637143201027  12.700000000000  1  # C
 69.623934074481  56.453346520901  12.700000000000  1  # C
 70.877262630547  55.761030940173  12.700000000000  1  # C
 68.343504121086  58.577234260047  12.700000000000  1  # C
 69.596832677151  57.884918679320  12.700000000000  1  # C
 67.063074167690  60.701121999194  12.700000000000  1  # C
 68.316402723756  60.008806418466  12.700000000000  1  # C
 65.782644214295  62.825009738340  12.700000000000  1  # C
 67.035972770360  62.132694157613  12.700000000000  1  # C
 64.502214260899  64.948897477487  12.700000000000  1  # C
 65.755542816965  64.256581896759  12.700000000000  1  # C
 63.221784307504  67.072785216633  12.700000000000  1  # C
 64.475112863569  66.380469635906  12.700000000000  1  # C
 61.941354354108  69.196672955780  12.700000000000  1  # C
 63.194682910174  68.504357375052  12.700000000000  1  # C
 60.660924400713  71.320560694926  12.700000000000  1  # C
 61.914252956778  70.628245114199  12.700000000000  1  # C
 59.380494447317  73.444448434073  12.700000000000  1  # C
 60.633823003383  72.752132853345  12.700000000000  1  # C
 58.100064493922  75.568336173219  12.700000000000  1  # C
 59.353393049987  74.876020592491  12.700000000000  1  # C
 56.819634540526  77.692223912365  12.700000000000  1  # C
 58.072963096592  76.999908331638  12.700000000000  1  # C
 55.539204587131  79.816111651512  12.700000000000  1  # C
 56.792533143197  79.123796070784  12.700000000000  1  # C
 54.258774633735  81.939999390658  12.700000000000  1  # C
 55.512103189801  81.247683809931  12.700000000000  1  # C
 52.978344680340  84.063887129805  12.700000000000  1  # C
 54.231673236406  83.371571549077  12.700000000000  1  # C
 51.697914726944  86.187774868951  12.700000000000  1  # C
 52.951243283010  85.495459288224  12.700000000000  1  # C
 50.417484773549  88.311662608098  12.700000000000  1  # C
 51.670813329615  87.619347027370  12.700000000000  1  # C
 49.137054820153  90.435550347244  12.700000000000  1  # C
 50.390383376219  89.743234766517  12.700000000000  1  # C
 47.856624866758  92.559438086391  12.700000000000  1  # C
 49.109953422824  91.867122505663  12.700000000000  1  # C
 46.576194913363  94.683325825537  12.700000000000  1  # C
 47.829523469428  93.991010244810  12.700000000000  1  # C
 45.295764959967  96.807213564684  12.700000000000  1  # C
 46.549093516033  96.114897983956  12.700000000000  1  # C
 44.015335006572  98.931101303830  12.700000000000  1  # C
 45.268663562637  98.238785723102  12.700000000000  1  # C
 42.734905053176  101.054989042976  12.700000000000  1  # C
 43.988233609242  100.362673462249  12.700000000000  1  # C
 41.454475099781  103.178876782123  12.700000000000  1  # C
 42.707803655846  102.486561201395  12.700000000000  1  # C
 40.174045146385  105.302764521269  12.700000000000  1  # C
 41.427373702451  104.610448940542  12.700000000000  1  # C
 38.893615192990  107.426652260416  12.700000000000  1  # C
 40.146943749055  106.734336679688  12.700000000000  1  # C
 37.613185239594  109.550539999562  12.700000000000  1  # C
 38.866513795660  108.858224418835  12.700000000000  1  # C
 36.332755286199  111.674427738709  12.700000000000  1  # C
 37.586083842264  110.982112157981  12.700000000000  1  # C
 35.052325332803  113.798315477855  12.700000000000  1  # C
 36.305653888869  113.105999897128  12.700000000000  1  # C
 33.771895379408  115.922203217002  12.700000000000  1  # C
 35.025223935473  115.229887636274  12.700000000000  1  # C
 32.491465426012  118.046090956148  12.700000000000  1  # C
 33.744793982078  117.353775375421  12.700000000000  1  # C
 31.211035472617  120.169978695295  12.700000000000  1  # C
 32.464364028682  119.477663114567  12.700000000000  1  # C
 29.930605519221  122.293866434441  12.700000000000  1  # C
 31.183934075287  121.601550853713  12.700000000000  1  # C
 28.650175565826  124.417754173587  12.700000000000  1  # C
 29.903504121891  123.725438592860  12.700000000000  1  # C
 27.369745612430  126.541641912734  12.700000000000  1  # C
 28.623074168496  125.849326332006  12.700000000000  1  # C
 26.089315659035  128.665529651880  12.700000000000  1  # C
 27.342644215100  127.973214071153  12.700000000000  1  # C
 24.808885705639  130.789417391027  12.700000000000  1  # C
 26.062214261705  130.097101810299  12.700000000000  1  # C
 23.528455752244  132.913305130173  12.700000000000  1  # C
 24.781784308309  132.220989549446  12.700000000000  1  # C
 22.248025798848  135.037192869320  12.700000000000  1  # C
 23.501354354914  134.344877288592  12.700000000000  1  # C
 20.967595845453  137.161080608466  12.700000000000  1  # C
 22.220924401518  136.468765027739  12.700000000000  1  # C
 19.687165892057  139.284968347613  12.700000000000  1  # C
 20.940494448123  138.592652766885  12.700000000000  1  # C
 18.406735938662  141.408856086759  12.700000000000  1  # C
 19.660064494727  140.716540506032  12.700000000000  1  # C
 77.225209602861  48.004736561479  12.700000000000  1  # C
 78.478538158926  47.312420980751  12.700000000000  1  # C
 75.944779649465  50.128624300625  12.700000000000  1  # C
 77.198108205531  49.436308719898  12.700000000000  1  # C
 74.664349696070  52.252512039772  12.700000000000  1  # C
 75.917678252135  51.560196459044  12.700000000000  1  # C
 73.383919742674  54.376399778918  12.700000000000  1  # C
 74.637248298740  53.684084198191  12.700000000000  1  # C
 72.103489789279  56.500287518065  12.700000000000  1  # C
 73.356818345344  55.807971937337  12.700000000000  1  # C
 70.823059835883  58.624175257211  12.700000000000  1  # C
 72.076388391949  57.931859676484  12.700000000000  1  # C
 69.542629882488  60.748062996358  12.700000000000  1  # C
 70.795958438553  60.055747415630  12.700000000000  1  # C
 68.262199929092  62.871950735504  12.700000000000  1  # C
 69.515528485158  62.179635154777  12.700000000000  1  # C
 66.981769975697  64.995838474651  12.700000000000  1  # C
 68.235098531762  64.303522893923  12.700000000000  1  # C
 65.701340022301  67.119726213797  12.700000000000  1  # C
 66.954668578367  66.427410633070  12.700000000000  1  # C
 64.420910068906  69.243613952944  12.700000000000  1  # C
 65.674238624972  68.551298372216  12.700000000000  1  # C
 63.140480115510  71.367501692090  12.700000000000  1  # C
 64.393808671576  70.675186111363  12.700000000000  1  # C
 61.860050162115  73.491389431236  12.700000000000  1  # C
 63.113378718181  72.799073850509  12.700000000000  1  # C
 60.579620208719  75.615277170383  12.700000000000  1  # C
 61.832948764785  74.922961589655  12.700000000000  1  # C
 59.299190255324  77.739164909529  12.700000000000  1  # C
 60.552518811390  77.046849328802  12.700000000000  1  # C
 58.018760301928  79.863052648676  12.700000000000  1  # C
 59.272088857994  79.170737067948  12.700000000000  1  # C
 56.738330348533  81.986940387822  12.700000000000  1  # C
 57.991658904599  81.294624807095  12.700000000000  1  # C
 55.457900395138  84.110828126969  12.700000000000  1  # C
 56.711228951203  83.418512546241  12.700000000000  1  # C
 54.177470441742  86.234715866115  12.700000000000  1  # C
 55.430798997808  85.542400285388  12.700000000000  1  # C
 52.897040488347  88.358603605262  12.700000000000  1  # C
 54.150369044412  87.666288024534  12.700000000000  1  # C
 51.616610534951  90.482491344408  12.700000000000  1  # C
 52.869939091017  89.790175763681  12.700000000000  1  # C
 50.336180581556  92.606379083555  12.700000000000  1  # C
 51.589509137621  91.914063502827  12.700000000000  1  # C
 49.055750628160  94.730266822701  12.700000000000  1  # C
 50.309079184226  94.037951241973  12.700000000000  1  # C
 47.775320674765  96.854154561847  12.700000000000  1  # C
 49.028649230830  96.161838981120  12.700000000000  1  # C
 46.494890721369  98.978042300994  12.700000000000  1  # C
 47.748219277435  98.285726720266  12.700000000000  1  # C
 45.214460767974  101.101930040140  12.700000000000  1  # C
 46.467789324039  100.409614459413  12.700000000000  1  # C
 43.934030814578  103.225817779287  12.700000000000  1  # C
 45.187359370644  102.533502198559  12.700000000000  1  # C
 42.653600861183  105.349705518433  12.700000000000  1  # C
 43.906929417248  104.657389937706  12.700000000000  1  # C
 41.373170907787  107.473593257580  12.700000000000  1  # C
 42.626499463853  106.781277676852  12.700000000000  1  # C
 40.092740954392  109.597480996726  12.700000000000  1  # C
 41.346069510457  108.905165415999  12.700000000000  1  # C
 38.812311000996  111.721368735873  12.700000000000  1  # C
 40.065639557062  111.029053155145  12.700000000000  1  # C
 37.531881047601  113.845256475019  12.700000000000  1  # C
 38.785209603666  113.152940894292  12.700000000000  1  # C
 36.251451094205  115.969144214166  12.700000000000  1  # C
 37.504779650271  115.276828633438  12.700000000000  1  # C
 34.971021140810  118.093031953312  12.700000000000  1  # C
 36.224349696875  117.400716372585  12.700000000000  1  # C
 33.690591187414  120.216919692458  12.700000000000  1  # C
 34.943919743480  119.524604111731  12.700000000000  1  # C
 32.410161234019  122.340807431605  12.700000000000  1  # C
 33.663489790084  121.648491850877  12.700000000000  1  # C
 31.129731280623  124.464695170751  12.700000000000  1  # C
 32.383059836689  123.772379590024  12.700000000000  1  # C
 29.849301327228  126.588582909898  12.700000000000  1  # C
 31.102629883293  125.896267329170  12.700000000000  1  # C
 28.568871373832  128.712470649044  12.700000000000  1  # C
 29.822199929898  128.020155068317  12.700000000000  1  # C
 27.288441420437  130.836358388191  12.700000000000  1  # C
 28.541769976502  130.144042807463  12.700000000000  1  # C
 26.008011467041  132.960246127337  12.700000000000  1  # C
 27.261340023107  132.267930546610  12.700000000000  1  # C
 24.727581513646  135.084133866484  12.700000000000  1  # C
 25.980910069712  134.391818285756  12.700000000000  1  # C
 23.447151560250  137.208021605630  12.700000000000  1  # C
 24.700480116316  136.515706024903  12.700000000000  1  # C
 22.166721606855  139.331909344777  12.700000000000  1  # C
 23.420050162921  138.639593764049  12.700000000000  1  # C
 20.886291653459  141.455797083923  12.700000000000  1  # C
 22.139620209525  140.763481503195  12.700000000000  1  # C
 20.859190256130  142.887369242342  12.700000000000  1  # C
 79.704765317658  48.051677558643  12.700000000000  1  # C
 78.424335364263  50.175565297789  12.700000000000  1  # C
 79.677663920328  49.483249717062  12.700000000000  1  # C
 77.143905410867  52.299453036936  12.700000000000  1  # C
 78.397233966933  51.607137456208  12.700000000000  1  # C
 75.863475457472  54.423340776082  12.700000000000  1  # C
 77.116804013537  53.731025195355  12.700000000000  1  # C
 74.583045504076  56.547228515229  12.700000000000  1  # C
 75.836374060142  55.854912934501  12.700000000000  1  # C
 73.302615550681  58.671116254375  12.700000000000  1  # C
 74.555944106746  57.978800673648  12.700000000000  1  # C
 72.022185597285  60.795003993522  12.700000000000  1  # C
 73.275514153351  60.102688412794  12.700000000000  1  # C
 70.741755643890  62.918891732668  12.700000000000  1  # C
 71.995084199956  62.226576151941  12.700000000000  1  # C
 69.461325690494  65.042779471815  12.700000000000  1  # C
 70.714654246560  64.350463891087  12.700000000000  1  # C
 68.180895737099  67.166667210961  12.700000000000  1  # C
 69.434224293165  66.474351630233  12.700000000000  1  # C
 66.900465783703  69.290554950107  12.700000000000  1  # C
 68.153794339769  68.598239369380  12.700000000000  1  # C
 65.620035830308  71.414442689254  12.700000000000  1  # C
 66.873364386374  70.722127108526  12.700000000000  1  # C
 64.339605876913  73.538330428400  12.700000000000  1  # C
 65.592934432978  72.846014847673  12.700000000000  1  # C
 63.059175923517  75.662218167547  12.700000000000  1  # C
 64.312504479583  74.969902586819  12.700000000000  1  # C
 61.778745970122  77.786105906693  12.700000000000  1  # C
 63.032074526187  77.093790325966  12.700000000000  1  # C
 60.498316016726  79.909993645840  12.700000000000  1  # C
 61.751644572792  79.217678065112  12.700000000000  1  # C
 59.217886063331  82.033881384986  12.700000000000  1  # C
 60.471214619396  81.341565804259  12.700000000000  1  # C
 57.937456109935  84.157769124133  12.700000000000  1  # C
 59.190784666001  83.465453543405  12.700000000000  1  # C
 56.657026156540  86.281656863279  12.700000000000  1  # C
 57.910354712605  85.589341282552  12.700000000000  1  # C
 55.376596203144  88.405544602426  12.700000000000  1  # C
 56.629924759210  87.713229021698  12.700000000000  1  # C
 54.096166249749  90.529432341572  12.700000000000  1  # C
 55.349494805814  89.837116760845  12.700000000000  1  # C
 52.815736296353  92.653320080718  12.700000000000  1  # C
 54.069064852419  91.961004499991  12.700000000000  1  # C
 51.535306342958  94.777207819865  12.700000000000  1  # C
 52.788634899023  94.084892239137  12.700000000000  1  # C
 50.254876389562  96.901095559011  12.700000000000  1  # C
 51.508204945628  96.208779978284  12.700000000000  1  # C
 48.974446436167  99.024983298158  12.700000000000  1  # C
 50.227774992232  98.332667717430  12.700000000000  1  # C
 47.694016482771  101.148871037304  12.700000000000  1  # C
 48.947345038837  100.456555456577  12.700000000000  1  # C
 46.413586529376  103.272758776451  12.700000000000  1  # C
 47.666915085441  102.580443195723  12.700000000000  1  # C
 45.133156575980  105.396646515597  12.700000000000  1  # C
 46.386485132046  104.704330934870  12.700000000000  1  # C
 43.852726622585  107.520534254744  12.700000000000  1  # C
 45.106055178650  106.828218674016  12.700000000000  1  # C
 42.572296669189  109.644421993890  12.700000000000  1  # C
 43.825625225255  108.952106413163  12.700000000000  1  # C
 41.291866715794  111.768309733037  12.700000000000  1  # C
 42.545195271859  111.075994152309  12.700000000000  1  # C
 40.011436762398  113.892197472183  12.700000000000  1  # C
 41.264765318464  113.199881891456  12.700000000000  1  # C
 38.731006809003  116.016085211329  12.700000000000  1  # C
 39.984335365068  115.323769630602  12.700000000000  1  # C
 37.450576855607  118.139972950476  12.700000000000  1  # C
 38.703905411673  117.447657369748  12.700000000000  1  # C
 36.170146902212  120.263860689622  12.700000000000  1  # C
 37.423475458277  119.571545108895  12.700000000000  1  # C
 34.889716948816  122.387748428769  12.700000000000  1  # C
 36.143045504882  121.695432848041  12.700000000000  1  # C
 33.609286995421  124.511636167915  12.700000000000  1  # C
 34.862615551486  123.819320587188  12.700000000000  1  # C
 32.328857042025  126.635523907062  12.700000000000  1  # C
 33.582185598091  125.943208326334  12.700000000000  1  # C
 31.048427088630  128.759411646208  12.700000000000  1  # C
 32.301755644696  128.067096065481  12.700000000000  1  # C
 29.767997135234  130.883299385355  12.700000000000  1  # C
 31.021325691300  130.190983804627  12.700000000000  1  # C
 28.487567181839  133.007187124501  12.700000000000  1  # C
 29.740895737905  132.314871543774  12.700000000000  1  # C
 27.207137228443  135.131074863648  12.700000000000  1  # C
 28.460465784509  134.438759282920  12.700000000000  1  # C
 25.926707275048  137.254962602794  12.700000000000  1  # C
 27.180035831114  136.562647022066  12.700000000000  1  # C
 24.646277321652  139.378850341940  12.700000000000  1  # C
 25.899605877718  138.686534761213  12.700000000000  1  # C
 23.365847368257  141.502738081087  12.700000000000  1  # C
 24.619175924323  140.810422500359  12.700000000000  1  # C
 22.085417414862  143.626625820233  12.700000000000  1  # C
 23.338745970927  142.934310239506  12.700000000000  1  # C
 80.903891079060  50.222506294953  12.700000000000  1  # C
 82.157219635126  49.530190714226  12.700000000000  1  # C
 79.623461125665  52.346394034100  12.700000000000  1  # C
 80.876789681731  51.654078453372  12.700000000000  1  # C
 78.343031172269  54.470281773246  12.700000000000  1  # C
 79.596359728335  53.777966192519  12.700000000000  1  # C
 77.062601218874  56.594169512393  12.700000000000  1  # C
 78.315929774940  55.901853931665  12.700000000000  1  # C
 75.782171265478  58.718057251539  12.700000000000  1  # C
 77.035499821544  58.025741670812  12.700000000000  1  # C
 74.501741312083  60.841944990686  12.700000000000  1  # C
 75.755069868149  60.149629409958  12.700000000000  1  # C
 73.221311358687  62.965832729832  12.700000000000  1  # C
 74.474639914753  62.273517149105  12.700000000000  1  # C
 71.940881405292  65.089720468978  12.700000000000  1  # C
 73.194209961358  64.397404888251  12.700000000000  1  # C
 70.660451451897  67.213608208125  12.700000000000  1  # C
 71.913780007962  66.521292627397  12.700000000000  1  # C
 69.380021498501  69.337495947271  12.700000000000  1  # C
 70.633350054567  68.645180366544  12.700000000000  1  # C
 68.099591545106  71.461383686418  12.700000000000  1  # C
 69.352920101171  70.769068105690  12.700000000000  1  # C
 66.819161591710  73.585271425564  12.700000000000  1  # C
 68.072490147776  72.892955844837  12.700000000000  1  # C
 65.538731638315  75.709159164711  12.700000000000  1  # C
 66.792060194380  75.016843583983  12.700000000000  1  # C
 64.258301684919  77.833046903857  12.700000000000  1  # C
 65.511630240985  77.140731323130  12.700000000000  1  # C
 62.977871731524  79.956934643004  12.700000000000  1  # C
 64.231200287589  79.264619062276  12.700000000000  1  # C
 61.697441778128  82.080822382150  12.700000000000  1  # C
 62.950770334194  81.388506801423  12.700000000000  1  # C
 60.417011824733  84.204710121297  12.700000000000  1  # C
 61.670340380798  83.512394540569  12.700000000000  1  # C
 59.136581871337  86.328597860443  12.700000000000  1  # C
 60.389910427403  85.636282279715  12.700000000000  1  # C
 57.856151917942  88.452485599589  12.700000000000  1  # C
 59.109480474007  87.760170018862  12.700000000000  1  # C
 56.575721964546  90.576373338736  12.700000000000  1  # C
 57.829050520612  89.884057758008  12.700000000000  1  # C
 55.295292011151  92.700261077882  12.700000000000  1  # C
 56.548620567216  92.007945497155  12.700000000000  1  # C
 54.014862057755  94.824148817029  12.700000000000  1  # C
 55.268190613821  94.131833236301  12.700000000000  1  # C
 52.734432104360  96.948036556175  12.700000000000  1  # C
 53.987760660425  96.255720975448  12.700000000000  1  # C
 51.454002150964  99.071924295322  12.700000000000  1  # C
 52.707330707030  98.379608714594  12.700000000000  1  # C
 50.173572197569  101.195812034468  12.700000000000  1  # C
 51.426900753634  100.503496453741  12.700000000000  1  # C
 48.893142244173  103.319699773615  12.700000000000  1  # C
 50.146470800239  102.627384192887  12.700000000000  1  # C
 47.612712290778  105.443587512761  12.700000000000  1  # C
 48.866040846843  104.751271932034  12.700000000000  1  # C
 46.332282337382  107.567475251908  12.700000000000  1  # C
 47.585610893448  106.875159671180  12.700000000000  1  # C
 45.051852383987  109.691362991054  12.700000000000  1  # C
 46.305180940052  108.999047410327  12.700000000000  1  # C
 43.771422430591  111.815250730200  12.700000000000  1  # C
 45.024750986657  111.122935149473  12.700000000000  1  # C
 42.490992477196  113.939138469347  12.700000000000  1  # C
 43.744321033261  113.246822888619  12.700000000000  1  # C
 41.210562523800  116.063026208493  12.700000000000  1  # C
 42.463891079866  115.370710627766  12.700000000000  1  # C
 39.930132570405  118.186913947640  12.700000000000  1  # C
 41.183461126471  117.494598366912  12.700000000000  1  # C
 38.649702617009  120.310801686786  12.700000000000  1  # C
 39.903031173075  119.618486106059  12.700000000000  1  # C
 37.369272663614  122.434689425933  12.700000000000  1  # C
 38.622601219680  121.742373845205  12.700000000000  1  # C
 36.088842710218  124.558577165079  12.700000000000  1  # C
 37.342171266284  123.866261584352  12.700000000000  1  # C
 34.808412756823  126.682464904226  12.700000000000  1  # C
 36.061741312889  125.990149323498  12.700000000000  1  # C
 33.527982803427  128.806352643372  12.700000000000  1  # C
 34.781311359493  128.114037062645  12.700000000000  1  # C
 32.247552850032  130.930240382519  12.700000000000  1  # C
 33.500881406098  130.237924801791  12.700000000000  1  # C
 30.967122896637  133.054128121665  12.700000000000  1  # C
 32.220451452702  132.361812540938  12.700000000000  1  # C
 29.686692943241  135.178015860811  12.700000000000  1  # C
 30.940021499307  134.485700280084  12.700000000000  1  # C
 28.406262989846  137.301903599958  12.700000000000  1  # C
 29.659591545911  136.609588019230  12.700000000000  1  # C
 27.125833036450  139.425791339104  12.700000000000  1  # C
 28.379161592516  138.733475758377  12.700000000000  1  # C
 25.845403083055  141.549679078251  12.700000000000  1  # C
 27.098731639120  140.857363497523  12.700000000000  1  # C
 24.564973129659  143.673566817397  12.700000000000  1  # C
 25.818301685725  142.981251236670  12.700000000000  1  # C
 24.537871732329  145.105138975816  12.700000000000  1  # C
 83.383446793858  50.269447292117  12.700000000000  1  # C
 82.103016840462  52.393335031264  12.700000000000  1  # C
 83.356345396528  51.701019450536  12.700000000000  1  # C
 80.822586887067  54.517222770410  12.700000000000  1  # C
 82.075915443133  53.824907189683  12.700000000000  1  # C
 79.542156933672  56.641110509557  12.700000000000  1  # C
 80.795485489737  55.948794928829  12.700000000000  1  # C
 78.261726980276  58.764998248703  12.700000000000  1  # C
 79.515055536342  58.072682667976  12.700000000000  1  # C
 76.981297026881  60.888885987849  12.700000000000  1  # C
 78.234625582946  60.196570407122  12.700000000000  1  # C
 75.700867073485  63.012773726996  12.700000000000  1  # C
 76.954195629551  62.320458146268  12.700000000000  1  # C
 74.420437120090  65.136661466142  12.700000000000  1  # C
 75.673765676155  64.444345885415  12.700000000000  1  # C
 73.140007166694  67.260549205289  12.700000000000  1  # C
 74.393335722760  66.568233624561  12.700000000000  1  # C
 71.859577213299  69.384436944435  12.700000000000  1  # C
 73.112905769364  68.692121363708  12.700000000000  1  # C
 70.579147259903  71.508324683582  12.700000000000  1  # C
 71.832475815969  70.816009102854  12.700000000000  1  # C
 69.298717306508  73.632212422728  12.700000000000  1  # C
 70.552045862573  72.939896842001  12.700000000000  1  # C
 68.018287353112  75.756100161875  12.700000000000  1  # C
 69.271615909178  75.063784581147  12.700000000000  1  # C
 66.737857399717  77.879987901021  12.700000000000  1  # C
 67.991185955782  77.187672320294  12.700000000000  1  # C
 65.457427446321  80.003875640168  12.700000000000  1  # C
 66.710756002387  79.311560059440  12.700000000000  1  # C
 64.176997492926  82.127763379314  12.700000000000  1  # C
 65.430326048991  81.435447798587  12.700000000000  1  # C
 62.896567539530  84.251651118460  12.700000000000  1  # C
 64.149896095596  83.559335537733  12.700000000000  1  # C
 61.616137586135  86.375538857607  12.700000000000  1  # C
 62.869466142200  85.683223276879  12.700000000000  1  # C
 60.335707632739  88.499426596753  12.700000000000  1  # C
 61.589036188805  87.807111016026  12.700000000000  1  # C
 59.055277679344  90.623314335900  12.700000000000  1  # C
 60.308606235409  89.930998755172  12.700000000000  1  # C
 57.774847725948  92.747202075046  12.700000000000  1  # C
 59.028176282014  92.054886494319  12.700000000000  1  # C
 56.494417772553  94.871089814193  12.700000000000  1  # C
 57.747746328618  94.178774233465  12.700000000000  1  # C
 55.213987819157  96.994977553339  12.700000000000  1  # C
 56.467316375223  96.302661972612  12.700000000000  1  # C
 53.933557865762  99.118865292486  12.700000000000  1  # C
 55.186886421827  98.426549711758  12.700000000000  1  # C
 52.653127912366  101.242753031632  12.700000000000  1  # C
 53.906456468432  100.550437450905  12.700000000000  1  # C
 51.372697958971  103.366640770779  12.700000000000  1  # C
 52.626026515036  102.674325190051  12.700000000000  1  # C
 50.092268005575  105.490528509925  12.700000000000  1  # C
 51.345596561641  104.798212929198  12.700000000000  1  # C
 48.811838052180  107.614416249071  12.700000000000  1  # C
 50.065166608245  106.922100668344  12.700000000000  1  # C
 47.531408098784  109.738303988218  12.700000000000  1  # C
 48.784736654850  109.045988407490  12.700000000000  1  # C
 46.250978145389  111.862191727364  12.700000000000  1  # C
 47.504306701455  111.169876146637  12.700000000000  1  # C
 44.970548191993  113.986079466511  12.700000000000  1  # C
 46.223876748059  113.293763885783  12.700000000000  1  # C
 43.690118238598  116.109967205657  12.700000000000  1  # C
 44.943446794664  115.417651624930  12.700000000000  1  # C
 42.409688285202  118.233854944804  12.700000000000  1  # C
 43.663016841268  117.541539364076  12.700000000000  1  # C
 41.129258331807  120.357742683950  12.700000000000  1  # C
 42.382586887873  119.665427103223  12.700000000000  1  # C
 39.848828378411  122.481630423097  12.700000000000  1  # C
 41.102156934477  121.789314842369  12.700000000000  1  # C
 38.568398425016  124.605518162243  12.700000000000  1  # C
 39.821726981082  123.913202581516  12.700000000000  1  # C
 37.287968471621  126.729405901390  12.700000000000  1  # C
 38.541297027686  126.037090320662  12.700000000000  1  # C
 36.007538518225  128.853293640536  12.700000000000  1  # C
 37.260867074291  128.160978059809  12.700000000000  1  # C
 34.727108564830  130.977181379682  12.700000000000  1  # C
 35.980437120895  130.284865798955  12.700000000000  1  # C
 33.446678611434  133.101069118829  12.700000000000  1  # C
 34.700007167500  132.408753538101  12.700000000000  1  # C
 32.166248658039  135.224956857975  12.700000000000  1  # C
 33.419577214104  134.532641277248  12.700000000000  1  # C
 30.885818704643  137.348844597122  12.700000000000  1  # C
 32.139147260709  136.656529016394  12.700000000000  1  # C
 29.605388751248  139.472732336268  12.700000000000  1  # C
 30.858717307313  138.780416755541  12.700000000000  1  # C
 28.324958797852  141.596620075415  12.700000000000  1  # C
 29.578287353918  140.904304494687  12.700000000000  1  # C
 27.044528844457  143.720507814561  12.700000000000  1  # C
 28.297857400522  143.028192233834  12.700000000000  1  # C
 25.764098891061  145.844395553708  12.700000000000  1  # C
 27.017427447127  145.152079972980  12.700000000000  1  # C
 84.582572555260  52.440276028428  12.700000000000  1  # C
 85.835901111326  51.747960447700  12.700000000000  1  # C
 83.302142601865  54.564163767574  12.700000000000  1  # C
 84.555471157930  53.871848186847  12.700000000000  1  # C
 82.021712648469  56.688051506720  12.700000000000  1  # C
 83.275041204535  55.995735925993  12.700000000000  1  # C
 80.741282695074  58.811939245867  12.700000000000  1  # C
 81.994611251139  58.119623665139  12.700000000000  1  # C
 79.460852741678  60.935826985013  12.700000000000  1  # C
 80.714181297744  60.243511404286  12.700000000000  1  # C
 78.180422788283  63.059714724160  12.700000000000  1  # C
 79.433751344348  62.367399143432  12.700000000000  1  # C
 76.899992834887  65.183602463306  12.700000000000  1  # C
 78.153321390953  64.491286882579  12.700000000000  1  # C
 75.619562881492  67.307490202453  12.700000000000  1  # C
 76.872891437557  66.615174621725  12.700000000000  1  # C
 74.339132928096  69.431377941599  12.700000000000  1  # C
 75.592461484162  68.739062360872  12.700000000000  1  # C
 73.058702974701  71.555265680746  12.700000000000  1  # C
 74.312031530766  70.862950100018  12.700000000000  1  # C
 71.778273021305  73.679153419892  12.700000000000  1  # C
 73.031601577371  72.986837839165  12.700000000000  1  # C
 70.497843067910  75.803041159039  12.700000000000  1  # C
 71.751171623975  75.110725578311  12.700000000000  1  # C
 69.217413114514  77.926928898185  12.700000000000  1  # C
 70.470741670580  77.234613317458  12.700000000000  1  # C
 67.936983161119  80.050816637331  12.700000000000  1  # C
 69.190311717184  79.358501056604  12.700000000000  1  # C
 66.656553207723  82.174704376478  12.700000000000  1  # C
 67.909881763789  81.482388795750  12.700000000000  1  # C
 65.376123254328  84.298592115624  12.700000000000  1  # C
 66.629451810393  83.606276534897  12.700000000000  1  # C
 64.095693300932  86.422479854771  12.700000000000  1  # C
 65.349021856998  85.730164274043  12.700000000000  1  # C
 62.815263347537  88.546367593917  12.700000000000  1  # C
 64.068591903602  87.854052013190  12.700000000000  1  # C
 61.534833394141  90.670255333064  12.700000000000  1  # C
 62.788161950207  89.977939752336  12.700000000000  1  # C
 60.254403440746  92.794143072210  12.700000000000  1  # C
 61.507731996811  92.101827491483  12.700000000000  1  # C
 58.973973487350  94.918030811357  12.700000000000  1  # C
 60.227302043416  94.225715230629  12.700000000000  1  # C
 57.693543533955  97.041918550503  12.700000000000  1  # C
 58.946872090020  96.349602969776  12.700000000000  1  # C
 56.413113580559  99.165806289650  12.700000000000  1  # C
 57.666442136625  98.473490708922  12.700000000000  1  # C
 55.132683627164  101.289694028796  12.700000000000  1  # C
 56.386012183230  100.597378448069  12.700000000000  1  # C
 53.852253673768  103.413581767942  12.700000000000  1  # C
 55.105582229834  102.721266187215  12.700000000000  1  # C
 52.571823720373  105.537469507089  12.700000000000  1  # C
 53.825152276439  104.845153926361  12.700000000000  1  # C
 51.291393766977  107.661357246235  12.700000000000  1  # C
 52.544722323043  106.969041665508  12.700000000000  1  # C
 50.010963813582  109.785244985382  12.700000000000  1  # C
 51.264292369648  109.092929404654  12.700000000000  1  # C
 48.730533860186  111.909132724528  12.700000000000  1  # C
 49.983862416252  111.216817143801  12.700000000000  1  # C
 47.450103906791  114.033020463675  12.700000000000  1  # C
 48.703432462857  113.340704882947  12.700000000000  1  # C
 46.169673953396  116.156908202821  12.700000000000  1  # C
 47.423002509461  115.464592622094  12.700000000000  1  # C
 44.889244000000  118.280795941968  12.700000000000  1  # C
 46.142572556066  117.588480361240  12.700000000000  1  # C
 43.608814046605  120.404683681114  12.700000000000  1  # C
 44.862142602670  119.712368100387  12.700000000000  1  # C
 42.328384093209  122.528571420261  12.700000000000  1  # C
 43.581712649275  121.836255839533  12.700000000000  1  # C
 41.047954139814  124.652459159407  12.700000000000  1  # C
 42.301282695879  123.960143578680  12.700000000000  1  # C
 39.767524186418  126.776346898553  12.700000000000  1  # C
 41.020852742484  126.084031317826  12.700000000000  1  # C
 38.487094233023  128.900234637700  12.700000000000  1  # C
 39.740422789088  128.207919056972  12.700000000000  1  # C
 37.206664279627  131.024122376846  12.700000000000  1  # C
 38.459992835693  130.331806796119  12.700000000000  1  # C
 35.926234326232  133.148010115993  12.700000000000  1  # C
 37.179562882297  132.455694535265  12.700000000000  1  # C
 34.645804372836  135.271897855139  12.700000000000  1  # C
 35.899132928902  134.579582274412  12.700000000000  1  # C
 33.365374419441  137.395785594286  12.700000000000  1  # C
 34.618702975506  136.703470013558  12.700000000000  1  # C
 32.084944466045  139.519673333432  12.700000000000  1  # C
 33.338273022111  138.827357752705  12.700000000000  1  # C
 30.804514512650  141.643561072579  12.700000000000  1  # C
 32.057843068715  140.951245491851  12.700000000000  1  # C
 29.524084559254  143.767448811725  12.700000000000  1  # C
 30.777413115320  143.075133230998  12.700000000000  1  # C
 28.243654605859  145.891336550872  12.700000000000  1  # C
 29.496983161924  145.199020970144  12.700000000000  1  # C
 28.216553208529  147.322908709290  12.700000000000  1  # C
 87.062128270058  52.487217025591  12.700000000000  1  # C
 85.781698316662  54.611104764738  12.700000000000  1  # C
 87.035026872728  53.918789184010  12.700000000000  1  # C
 84.501268363267  56.734992503884  12.700000000000  1  # C
 85.754596919332  56.042676923157  12.700000000000  1  # C
 83.220838409871  58.858880243031  12.700000000000  1  # C
 84.474166965937  58.166564662303  12.700000000000  1  # C
 81.940408456476  60.982767982177  12.700000000000  1  # C
 83.193737012541  60.290452401450  12.700000000000  1  # C
 80.659978503080  63.106655721324  12.700000000000  1  # C
 81.913307059146  62.414340140596  12.700000000000  1  # C
 79.379548549685  65.230543460470  12.700000000000  1  # C
 80.632877105750  64.538227879743  12.700000000000  1  # C
 78.099118596289  67.354431199617  12.700000000000  1  # C
 79.352447152355  66.662115618889  12.700000000000  1  # C
 76.818688642894  69.478318938763  12.700000000000  1  # C
 78.072017198959  68.786003358036  12.700000000000  1  # C
 75.538258689498  71.602206677910  12.700000000000  1  # C
 76.791587245564  70.909891097182  12.700000000000  1  # C
 74.257828736103  73.726094417056  12.700000000000  1  # C
 75.511157292168  73.033778836329  12.700000000000  1  # C
 72.977398782707  75.849982156202  12.700000000000  1  # C
 74.230727338773  75.157666575475  12.700000000000  1  # C
 71.696968829312  77.973869895349  12.700000000000  1  # C
 72.950297385377  77.281554314621  12.700000000000  1  # C
 70.416538875916  80.097757634495  12.700000000000  1  # C
 71.669867431982  79.405442053768  12.700000000000  1  # C
 69.136108922521  82.221645373642  12.700000000000  1  # C
 70.389437478586  81.529329792914  12.700000000000  1  # C
 67.855678969125  84.345533112788  12.700000000000  1  # C
 69.109007525191  83.653217532061  12.700000000000  1  # C
 66.575249015730  86.469420851935  12.700000000000  1  # C
 67.828577571795  85.777105271207  12.700000000000  1  # C
 65.294819062334  88.593308591081  12.700000000000  1  # C
 66.548147618400  87.900993010354  12.700000000000  1  # C
 64.014389108939  90.717196330228  12.700000000000  1  # C
 65.267717665004  90.024880749500  12.700000000000  1  # C
 62.733959155543  92.841084069374  12.700000000000  1  # C
 63.987287711609  92.148768488647  12.700000000000  1  # C
 61.453529202148  94.964971808521  12.700000000000  1  # C
 62.706857758214  94.272656227793  12.700000000000  1  # C
 60.173099248752  97.088859547667  12.700000000000  1  # C
 61.426427804818  96.396543966940  12.700000000000  1  # C
 58.892669295357  99.212747286813  12.700000000000  1  # C
 60.145997851423  98.520431706086  12.700000000000  1  # C
 57.612239341961  101.336635025960  12.700000000000  1  # C
 58.865567898027  100.644319445232  12.700000000000  1  # C
 56.331809388566  103.460522765106  12.700000000000  1  # C
 57.585137944632  102.768207184379  12.700000000000  1  # C
 55.051379435170  105.584410504253  12.700000000000  1  # C
 56.304707991236  104.892094923525  12.700000000000  1  # C
 53.770949481775  107.708298243399  12.700000000000  1  # C
 55.024278037841  107.015982662672  12.700000000000  1  # C
 52.490519528380  109.832185982546  12.700000000000  1  # C
 53.743848084445  109.139870401818  12.700000000000  1  # C
 51.210089574984  111.956073721692  12.700000000000  1  # C
 52.463418131050  111.263758140965  12.700000000000  1  # C
 49.929659621589  114.079961460839  12.700000000000  1  # C
 51.182988177654  113.387645880111  12.700000000000  1  # C
 48.649229668193  116.203849199985  12.700000000000  1  # C
 49.902558224259  115.511533619258  12.700000000000  1  # C
 47.368799714798  118.327736939132  12.700000000000  1  # C
 48.622128270863  117.635421358404  12.700000000000  1  # C
 46.088369761402  120.451624678278  12.700000000000  1  # C
 47.341698317468  119.759309097551  12.700000000000  1  # C
 44.807939808007  122.575512417424  12.700000000000  1  # C
 46.061268364072  121.883196836697  12.700000000000  1  # C
 43.527509854611  124.699400156571  12.700000000000  1  # C
 44.780838410677  124.007084575843  12.700000000000  1  # C
 42.247079901216  126.823287895717  12.700000000000  1  # C
 43.500408457281  126.130972314990  12.700000000000  1  # C
 40.966649947820  128.947175634864  12.700000000000  1  # C
 42.219978503886  128.254860054136  12.700000000000  1  # C
 39.686219994425  131.071063374010  12.700000000000  1  # C
 40.939548550490  130.378747793283  12.700000000000  1  # C
 38.405790041029  133.194951113157  12.700000000000  1  # C
 39.659118597095  132.502635532429  12.700000000000  1  # C
 37.125360087634  135.318838852303  12.700000000000  1  # C
 38.378688643699  134.626523271576  12.700000000000  1  # C
 35.844930134238  137.442726591450  12.700000000000  1  # C
 37.098258690304  136.750411010722  12.700000000000  1  # C
 34.564500180843  139.566614330596  12.700000000000  1  # C
 35.817828736908  138.874298749869  12.700000000000  1  # C
 33.284070227447  141.690502069743  12.700000000000  1  # C
 34.537398783513  140.998186489015  12.700000000000  1  # C
 32.003640274052  143.814389808889  12.700000000000  1  # C
 33.256968830117  143.122074228162  12.700000000000  1  # C
 30.723210320656  145.938277548036  12.700000000000  1  # C
 31.976538876722  145.245961967308  12.700000000000  1  # C
 29.442780367261  148.062165287182  12.700000000000  1  # C
 30.696108923326  147.369849706454  12.700000000000  1  # C
 88.261254031460  54.658045761902  12.700000000000  1  # C
 89.514582587525  53.965730181174  12.700000000000  1  # C
 86.980824078064  56.781933501048  12.700000000000  1  # C
 88.234152634130  56.089617920321  12.700000000000  1  # C
 85.700394124669  58.905821240195  12.700000000000  1  # C
 86.953722680734  58.213505659467  12.700000000000  1  # C
 84.419964171273  61.029708979341  12.700000000000  1  # C
 85.673292727339  60.337393398614  12.700000000000  1  # C
 83.139534217878  63.153596718488  12.700000000000  1  # C
 84.392862773943  62.461281137760  12.700000000000  1  # C
 81.859104264482  65.277484457634  12.700000000000  1  # C
 83.112432820548  64.585168876907  12.700000000000  1  # C
 80.578674311087  67.401372196781  12.700000000000  1  # C
 81.832002867152  66.709056616053  12.700000000000  1  # C
 79.298244357691  69.525259935927  12.700000000000  1  # C
 80.551572913757  68.832944355200  12.700000000000  1  # C
 78.017814404296  71.649147675073  12.700000000000  1  # C
 79.271142960361  70.956832094346  12.700000000000  1  # C
 76.737384450900  73.773035414220  12.700000000000  1  # C
 77.990713006966  73.080719833492  12.700000000000  1  # C
 75.456954497505  75.896923153366  12.700000000000  1  # C
 76.710283053570  75.204607572639  12.700000000000  1  # C
 74.176524544109  78.020810892513  12.700000000000  1  # C
 75.429853100175  77.328495311785  12.700000000000  1  # C
 72.896094590714  80.144698631659  12.700000000000  1  # C
 74.149423146779  79.452383050932  12.700000000000  1  # C
 71.615664637318  82.268586370806  12.700000000000  1  # C
 72.868993193384  81.576270790078  12.700000000000  1  # C
 70.335234683923  84.392474109952  12.700000000000  1  # C
 71.588563239988  83.700158529225  12.700000000000  1  # C
 69.054804730527  86.516361849099  12.700000000000  1  # C
 70.308133286593  85.824046268371  12.700000000000  1  # C
 67.774374777132  88.640249588245  12.700000000000  1  # C
 69.027703333198  87.947934007518  12.700000000000  1  # C
 66.493944823736  90.764137327392  12.700000000000  1  # C
 67.747273379802  90.071821746664  12.700000000000  1  # C
 65.213514870341  92.888025066538  12.700000000000  1  # C
 66.466843426407  92.195709485811  12.700000000000  1  # C
 63.933084916945  95.011912805684  12.700000000000  1  # C
 65.186413473011  94.319597224957  12.700000000000  1  # C
 62.652654963550  97.135800544831  12.700000000000  1  # C
 63.905983519616  96.443484964103  12.700000000000  1  # C
 61.372225010155  99.259688283977  12.700000000000  1  # C
 62.625553566220  98.567372703250  12.700000000000  1  # C
 60.091795056759  101.383576023124  12.700000000000  1  # C
 61.345123612825  100.691260442396  12.700000000000  1  # C
 58.811365103364  103.507463762270  12.700000000000  1  # C
 60.064693659429  102.815148181543  12.700000000000  1  # C
 57.530935149968  105.631351501417  12.700000000000  1  # C
 58.784263706034  104.939035920689  12.700000000000  1  # C
 56.250505196573  107.755239240563  12.700000000000  1  # C
 57.503833752638  107.062923659836  12.700000000000  1  # C
 54.970075243177  109.879126979710  12.700000000000  1  # C
 56.223403799243  109.186811398982  12.700000000000  1  # C
 53.689645289782  112.003014718856  12.700000000000  1  # C
 54.942973845847  111.310699138129  12.700000000000  1  # C
 52.409215336386  114.126902458003  12.700000000000  1  # C
 53.662543892452  113.434586877275  12.700000000000  1  # C
 51.128785382991  116.250790197149  12.700000000000  1  # C
 52.382113939056  115.558474616422  12.700000000000  1  # C
 49.848355429595  118.374677936295  12.700000000000  1  # C
 51.101683985661  117.682362355568  12.700000000000  1  # C
 48.567925476200  120.498565675442  12.700000000000  1  # C
 49.821254032265  119.806250094714  12.700000000000  1  # C
 47.287495522804  122.622453414588  12.700000000000  1  # C
 48.540824078870  121.930137833861  12.700000000000  1  # C
 46.007065569409  124.746341153735  12.700000000000  1  # C
 47.260394125474  124.054025573007  12.700000000000  1  # C
 44.726635616013  126.870228892881  12.700000000000  1  # C
 45.979964172079  126.177913312154  12.700000000000  1  # C
 43.446205662618  128.994116632028  12.700000000000  1  # C
 44.699534218683  128.301801051300  12.700000000000  1  # C
 42.165775709222  131.118004371174  12.700000000000  1  # C
 43.419104265288  130.425688790447  12.700000000000  1  # C
 40.885345755827  133.241892110321  12.700000000000  1  # C
 42.138674311892  132.549576529593  12.700000000000  1  # C
 39.604915802431  135.365779849467  12.700000000000  1  # C
 40.858244358497  134.673464268740  12.700000000000  1  # C
 38.324485849036  137.489667588614  12.700000000000  1  # C
 39.577814405101  136.797352007886  12.700000000000  1  # C
 37.044055895640  139.613555327760  12.700000000000  1  # C
 38.297384451706  138.921239747033  12.700000000000  1  # C
 35.763625942245  141.737443066907  12.700000000000  1  # C
 37.016954498310  141.045127486179  12.700000000000  1  # C
 34.483195988849  143.861330806053  12.700000000000  1  # C
 35.736524544915  143.169015225325  12.700000000000  1  # C
 33.202766035454  145.985218545199  12.700000000000  1  # C
 34.456094591519  145.292902964472  12.700000000000  1  # C
 31.922336082058  148.109106284346  12.700000000000  1  # C
 33.175664638124  147.416790703618  12.700000000000  1  # C
 31.895234684728  149.540678442765  12.700000000000  1  # C
 90.740809746257  54.704986759066  12.700000000000  1  # C
 89.460379792862  56.828874498212  12.700000000000  1  # C
 90.713708348927  56.136558917485  12.700000000000  1  # C
 88.179949839466  58.952762237359  12.700000000000  1  # C
 89.433278395532  58.260446656631  12.700000000000  1  # C
 86.899519886071  61.076649976505  12.700000000000  1  # C
 88.152848442136  60.384334395778  12.700000000000  1  # C
 85.619089932675  63.200537715652  12.700000000000  1  # C
 86.872418488741  62.508222134924  12.700000000000  1  # C
 84.338659979280  65.324425454798  12.700000000000  1  # C
 85.591988535345  64.632109874071  12.700000000000  1  # C
 83.058230025884  67.448313193944  12.700000000000  1  # C
 84.311558581950  66.755997613217  12.700000000000  1  # C
 81.777800072489  69.572200933091  12.700000000000  1  # C
 83.031128628554  68.879885352363  12.700000000000  1  # C
 80.497370119093  71.696088672237  12.700000000000  1  # C
 81.750698675159  71.003773091510  12.700000000000  1  # C
 79.216940165698  73.819976411384  12.700000000000  1  # C
 80.470268721763  73.127660830656  12.700000000000  1  # C
 77.936510212302  75.943864150530  12.700000000000  1  # C
 79.189838768368  75.251548569803  12.700000000000  1  # C
 76.656080258907  78.067751889677  12.700000000000  1  # C
 77.909408814973  77.375436308949  12.700000000000  1  # C
 75.375650305511  80.191639628823  12.700000000000  1  # C
 76.628978861577  79.499324048096  12.700000000000  1  # C
 74.095220352116  82.315527367970  12.700000000000  1  # C
 75.348548908182  81.623211787242  12.700000000000  1  # C
 72.814790398720  84.439415107116  12.700000000000  1  # C
 74.068118954786  83.747099526389  12.700000000000  1  # C
 71.534360445325  86.563302846263  12.700000000000  1  # C
 72.787689001391  85.870987265535  12.700000000000  1  # C
 70.253930491929  88.687190585409  12.700000000000  1  # C
 71.507259047995  87.994875004682  12.700000000000  1  # C
 68.973500538534  90.811078324555  12.700000000000  1  # C
 70.226829094600  90.118762743828  12.700000000000  1  # C
 67.693070585139  92.934966063702  12.700000000000  1  # C
 68.946399141204  92.242650482974  12.700000000000  1  # C
 66.412640631743  95.058853802848  12.700000000000  1  # C
 67.665969187809  94.366538222121  12.700000000000  1  # C
 65.132210678348  97.182741541995  12.700000000000  1  # C
 66.385539234413  96.490425961267  12.700000000000  1  # C
 63.851780724952  99.306629281141  12.700000000000  1  # C
 65.105109281018  98.614313700414  12.700000000000  1  # C
 62.571350771557  101.430517020288  12.700000000000  1  # C
 63.824679327622  100.738201439560  12.700000000000  1  # C
 61.290920818161  103.554404759434  12.700000000000  1  # C
 62.544249374227  102.862089178707  12.700000000000  1  # C
 60.010490864766  105.678292498581  12.700000000000  1  # C
 61.263819420831  104.985976917853  12.700000000000  1  # C
 58.730060911370  107.802180237727  12.700000000000  1  # C
 59.983389467436  107.109864657000  12.700000000000  1  # C
 57.449630957975  109.926067976874  12.700000000000  1  # C
 58.702959514040  109.233752396146  12.700000000000  1  # C
 56.169201004579  112.049955716020  12.700000000000  1  # C
 57.422529560645  111.357640135293  12.700000000000  1  # C
 54.888771051184  114.173843455166  12.700000000000  1  # C
 56.142099607249  113.481527874439  12.700000000000  1  # C
 53.608341097788  116.297731194313  12.700000000000  1  # C
 54.861669653854  115.605415613585  12.700000000000  1  # C
 52.327911144393  118.421618933459  12.700000000000  1  # C
 53.581239700458  117.729303352732  12.700000000000  1  # C
 51.047481190997  120.545506672606  12.700000000000  1  # C
 52.300809747063  119.853191091878  12.700000000000  1  # C
 49.767051237602  122.669394411752  12.700000000000  1  # C
 51.020379793667  121.977078831025  12.700000000000  1  # C
 48.486621284206  124.793282150899  12.700000000000  1  # C
 49.739949840272  124.100966570171  12.700000000000  1  # C
 47.206191330811  126.917169890045  12.700000000000  1  # C
 48.459519886876  126.224854309318  12.700000000000  1  # C
 45.925761377415  129.041057629192  12.700000000000  1  # C
 47.179089933481  128.348742048464  12.700000000000  1  # C
 44.645331424020  131.164945368338  12.700000000000  1  # C
 45.898659980085  130.472629787611  12.700000000000  1  # C
 43.364901470624  133.288833107485  12.700000000000  1  # C
 44.618230026690  132.596517526757  12.700000000000  1  # C
 42.084471517229  135.412720846631  12.700000000000  1  # C
 43.337800073294  134.720405265904  12.700000000000  1  # C
 40.804041563833  137.536608585777  12.700000000000  1  # C
 42.057370119899  136.844293005050  12.700000000000  1  # C
 39.523611610438  139.660496324924  12.700000000000  1  # C
 40.776940166503  138.968180744196  12.700000000000  1  # C
 38.243181657042  141.784384064070  12.700000000000  1  # C
 39.496510213108  141.092068483343  12.700000000000  1  # C
 36.962751703647  143.908271803217  12.700000000000  1  # C
 38.216080259713  143.215956222489  12.700000000000  1  # C
 35.682321750251  146.032159542363  12.700000000000  1  # C
 36.935650306317  145.339843961636  12.700000000000  1  # C
 34.401891796856  148.156047281510  12.700000000000  1  # C
 35.655220352922  147.463731700782  12.700000000000  1  # C
 33.121461843460  150.279935020656  12.700000000000  1  # C
 34.374790399526  149.587619439929  12.700000000000  1  # C
 91.939935507659  56.875815495376  12.700000000000  1  # C
 93.193264063725  56.183499914649  12.700000000000  1  # C
 90.659505554264  58.999703234523  12.700000000000  1  # C
 91.912834110329  58.307387653795  12.700000000000  1  # C
 89.379075600868  61.123590973669  12.700000000000  1  # C
 90.632404156934  60.431275392942  12.700000000000  1  # C
 88.098645647473  63.247478712816  12.700000000000  1  # C
 89.351974203538  62.555163132088  12.700000000000  1  # C
 86.818215694077  65.371366451962  12.700000000000  1  # C
 88.071544250143  64.679050871234  12.700000000000  1  # C
 85.537785740682  67.495254191108  12.700000000000  1  # C
 86.791114296747  66.802938610381  12.700000000000  1  # C
 84.257355787286  69.619141930255  12.700000000000  1  # C
 85.510684343352  68.926826349527  12.700000000000  1  # C
 82.976925833891  71.743029669401  12.700000000000  1  # C
 84.230254389957  71.050714088674  12.700000000000  1  # C
 81.696495880495  73.866917408548  12.700000000000  1  # C
 82.949824436561  73.174601827820  12.700000000000  1  # C
 80.416065927100  75.990805147694  12.700000000000  1  # C
 81.669394483166  75.298489566967  12.700000000000  1  # C
 79.135635973704  78.114692886841  12.700000000000  1  # C
 80.388964529770  77.422377306113  12.700000000000  1  # C
 77.855206020309  80.238580625987  12.700000000000  1  # C
 79.108534576375  79.546265045260  12.700000000000  1  # C
 76.574776066914  82.362468365134  12.700000000000  1  # C
 77.828104622979  81.670152784406  12.700000000000  1  # C
 75.294346113518  84.486356104280  12.700000000000  1  # C
 76.547674669584  83.794040523553  12.700000000000  1  # C
 74.013916160123  86.610243843426  12.700000000000  1  # C
 75.267244716188  85.917928262699  12.700000000000  1  # C
 72.733486206727  88.734131582573  12.700000000000  1  # C
 73.986814762793  88.041816001845  12.700000000000  1  # C
 71.453056253332  90.858019321719  12.700000000000  1  # C
 72.706384809397  90.165703740992  12.700000000000  1  # C
 70.172626299936  92.981907060866  12.700000000000  1  # C
 71.425954856002  92.289591480138  12.700000000000  1  # C
 68.892196346541  95.105794800012  12.700000000000  1  # C
 70.145524902606  94.413479219285  12.700000000000  1  # C
 67.611766393145  97.229682539159  12.700000000000  1  # C
 68.865094949211  96.537366958431  12.700000000000  1  # C
 66.331336439750  99.353570278305  12.700000000000  1  # C
 67.584664995815  98.661254697578  12.700000000000  1  # C
 65.050906486354  101.477458017452  12.700000000000  1  # C
 66.304235042420  100.785142436724  12.700000000000  1  # C
 63.770476532959  103.601345756598  12.700000000000  1  # C
 65.023805089024  102.909030175871  12.700000000000  1  # C
 62.490046579563  105.725233495745  12.700000000000  1  # C
 63.743375135629  105.032917915017  12.700000000000  1  # C
 61.209616626168  107.849121234891  12.700000000000  1  # C
 62.462945182233  107.156805654164  12.700000000000  1  # C
 59.929186672772  109.973008974037  12.700000000000  1  # C
 61.182515228838  109.280693393310  12.700000000000  1  # C
 58.648756719377  112.096896713184  12.700000000000  1  # C
 59.902085275442  111.404581132456  12.700000000000  1  # C
 57.368326765981  114.220784452330  12.700000000000  1  # C
 58.621655322047  113.528468871603  12.700000000000  1  # C
 56.087896812586  116.344672191477  12.700000000000  1  # C
 57.341225368651  115.652356610749  12.700000000000  1  # C
 54.807466859190  118.468559930623  12.700000000000  1  # C
 56.060795415256  117.776244349896  12.700000000000  1  # C
 53.527036905795  120.592447669770  12.700000000000  1  # C
 54.780365461860  119.900132089042  12.700000000000  1  # C
 52.246606952399  122.716335408916  12.700000000000  1  # C
 53.499935508465  122.024019828189  12.700000000000  1  # C
 50.966176999004  124.840223148063  12.700000000000  1  # C
 52.219505555069  124.147907567335  12.700000000000  1  # C
 49.685747045608  126.964110887209  12.700000000000  1  # C
 50.939075601674  126.271795306482  12.700000000000  1  # C
 48.405317092213  129.087998626356  12.700000000000  1  # C
 49.658645648278  128.395683045628  12.700000000000  1  # C
 47.124887138817  131.211886365502  12.700000000000  1  # C
 48.378215694883  130.519570784775  12.700000000000  1  # C
 45.844457185422  133.335774104648  12.700000000000  1  # C
 47.097785741487  132.643458523921  12.700000000000  1  # C
 44.564027232026  135.459661843795  12.700000000000  1  # C
 45.817355788092  134.767346263067  12.700000000000  1  # C
 43.283597278631  137.583549582941  12.700000000000  1  # C
 44.536925834697  136.891234002214  12.700000000000  1  # C
 42.003167325235  139.707437322088  12.700000000000  1  # C
 43.256495881301  139.015121741360  12.700000000000  1  # C
 40.722737371840  141.831325061234  12.700000000000  1  # C
 41.976065927906  141.139009480507  12.700000000000  1  # C
 39.442307418444  143.955212800381  12.700000000000  1  # C
 40.695635974510  143.262897219653  12.700000000000  1  # C
 38.161877465049  146.079100539527  12.700000000000  1  # C
 39.415206021115  145.386784958800  12.700000000000  1  # C
 36.881447511654  148.202988278674  12.700000000000  1  # C
 38.134776067719  147.510672697946  12.700000000000  1  # C
 35.601017558258  150.326876017820  12.700000000000  1  # C
 36.854346114324  149.634560437093  12.700000000000  1  # C
 35.573916160928  151.758448176239  12.700000000000  1  # C
 94.419491222457  56.922756492540  12.700000000000  1  # C
 93.139061269061  59.046644231687  12.700000000000  1  # C
 94.392389825127  58.354328650959  12.700000000000  1  # C
 91.858631315666  61.170531970833  12.700000000000  1  # C
 93.111959871732  60.478216390105  12.700000000000  1  # C
 90.578201362270  63.294419709979  12.700000000000  1  # C
 91.831529918336  62.602104129252  12.700000000000  1  # C
 89.297771408875  65.418307449126  12.700000000000  1  # C
 90.551099964941  64.725991868398  12.700000000000  1  # C
 88.017341455479  67.542195188272  12.700000000000  1  # C
 89.270670011545  66.849879607545  12.700000000000  1  # C
 86.736911502084  69.666082927419  12.700000000000  1  # C
 87.990240058150  68.973767346691  12.700000000000  1  # C
 85.456481548689  71.789970666565  12.700000000000  1  # C
 86.709810104754  71.097655085838  12.700000000000  1  # C
 84.176051595293  73.913858405712  12.700000000000  1  # C
 85.429380151359  73.221542824984  12.700000000000  1  # C
 82.895621641898  76.037746144858  12.700000000000  1  # C
 84.148950197963  75.345430564131  12.700000000000  1  # C
 81.615191688502  78.161633884005  12.700000000000  1  # C
 82.868520244568  77.469318303277  12.700000000000  1  # C
 80.334761735107  80.285521623151  12.700000000000  1  # C
 81.588090291172  79.593206042424  12.700000000000  1  # C
 79.054331781711  82.409409362298  12.700000000000  1  # C
 80.307660337777  81.717093781570  12.700000000000  1  # C
 77.773901828316  84.533297101444  12.700000000000  1  # C
 79.027230384381  83.840981520716  12.700000000000  1  # C
 76.493471874920  86.657184840590  12.700000000000  1  # C
 77.746800430986  85.964869259863  12.700000000000  1  # C
 75.213041921525  88.781072579737  12.700000000000  1  # C
 76.466370477590  88.088756999009  12.700000000000  1  # C
 73.932611968129  90.904960318883  12.700000000000  1  # C
 75.185940524195  90.212644738156  12.700000000000  1  # C
 72.652182014734  93.028848058030  12.700000000000  1  # C
 73.905510570799  92.336532477302  12.700000000000  1  # C
 71.371752061338  95.152735797176  12.700000000000  1  # C
 72.625080617404  94.460420216449  12.700000000000  1  # C
 70.091322107943  97.276623536323  12.700000000000  1  # C
 71.344650664008  96.584307955595  12.700000000000  1  # C
 68.810892154547  99.400511275469  12.700000000000  1  # C
 70.064220710613  98.708195694742  12.700000000000  1  # C
 67.530462201152  101.524399014616  12.700000000000  1  # C
 68.783790757217  100.832083433888  12.700000000000  1  # C
 66.250032247756  103.648286753762  12.700000000000  1  # C
 67.503360803822  102.955971173035  12.700000000000  1  # C
 64.969602294361  105.772174492909  12.700000000000  1  # C
 66.222930850426  105.079858912181  12.700000000000  1  # C
 63.689172340965  107.896062232055  12.700000000000  1  # C
 64.942500897031  107.203746651327  12.700000000000  1  # C
 62.408742387570  110.019949971201  12.700000000000  1  # C
 63.662070943635  109.327634390474  12.700000000000  1  # C
 61.128312434174  112.143837710348  12.700000000000  1  # C
 62.381640990240  111.451522129620  12.700000000000  1  # C
 59.847882480779  114.267725449494  12.700000000000  1  # C
 61.101211036844  113.575409868767  12.700000000000  1  # C
 58.567452527383  116.391613188641  12.700000000000  1  # C
 59.820781083449  115.699297607913  12.700000000000  1  # C
 57.287022573988  118.515500927787  12.700000000000  1  # C
 58.540351130053  117.823185347060  12.700000000000  1  # C
 56.006592620592  120.639388666934  12.700000000000  1  # C
 57.259921176658  119.947073086206  12.700000000000  1  # C
 54.726162667197  122.763276406080  12.700000000000  1  # C
 55.979491223262  122.070960825353  12.700000000000  1  # C
 53.445732713801  124.887164145227  12.700000000000  1  # C
 54.699061269867  124.194848564499  12.700000000000  1  # C
 52.165302760406  127.011051884373  12.700000000000  1  # C
 53.418631316472  126.318736303646  12.700000000000  1  # C
 50.884872807010  129.134939623520  12.700000000000  1  # C
 52.138201363076  128.442624042792  12.700000000000  1  # C
 49.604442853615  131.258827362666  12.700000000000  1  # C
 50.857771409681  130.566511781938  12.700000000000  1  # C
 48.324012900219  133.382715101812  12.700000000000  1  # C
 49.577341456285  132.690399521085  12.700000000000  1  # C
 47.043582946824  135.506602840959  12.700000000000  1  # C
 48.296911502890  134.814287260231  12.700000000000  1  # C
 45.763152993428  137.630490580105  12.700000000000  1  # C
 47.016481549494  136.938174999378  12.700000000000  1  # C
 44.482723040033  139.754378319252  12.700000000000  1  # C
 45.736051596099  139.062062738524  12.700000000000  1  # C
 43.202293086638  141.878266058398  12.700000000000  1  # C
 44.455621642703  141.185950477671  12.700000000000  1  # C
 41.921863133242  144.002153797545  12.700000000000  1  # C
 43.175191689308  143.309838216817  12.700000000000  1  # C
 40.641433179847  146.126041536691  12.700000000000  1  # C
 41.894761735912  145.433725955964  12.700000000000  1  # C
 39.361003226451  148.249929275838  12.700000000000  1  # C
 40.614331782517  147.557613695110  12.700000000000  1  # C
 38.080573273056  150.373817014984  12.700000000000  1  # C
 39.333901829121  149.681501434257  12.700000000000  1  # C
 36.800143319660  152.497704754131  12.700000000000  1  # C
 38.053471875726  151.805389173403  12.700000000000  1  # C
 95.618616983859  59.093585228850  12.700000000000  1  # C
 96.871945539925  58.401269648123  12.700000000000  1  # C
 94.338187030464  61.217472967997  12.700000000000  1  # C
 95.591515586529  60.525157387269  12.700000000000  1  # C
 93.057757077068  63.341360707143  12.700000000000  1  # C
 94.311085633134  62.649045126416  12.700000000000  1  # C
 91.777327123673  65.465248446290  12.700000000000  1  # C
 93.030655679738  64.772932865562  12.700000000000  1  # C
 90.496897170277  67.589136185436  12.700000000000  1  # C
 91.750225726343  66.896820604709  12.700000000000  1  # C
 89.216467216882  69.713023924583  12.700000000000  1  # C
 90.469795772947  69.020708343855  12.700000000000  1  # C
 87.936037263486  71.836911663729  12.700000000000  1  # C
 89.189365819552  71.144596083002  12.700000000000  1  # C
 86.655607310091  73.960799402876  12.700000000000  1  # C
 87.908935866156  73.268483822148  12.700000000000  1  # C
 85.375177356695  76.084687142022  12.700000000000  1  # C
 86.628505912761  75.392371561295  12.700000000000  1  # C
 84.094747403300  78.208574881169  12.700000000000  1  # C
 85.348075959365  77.516259300441  12.700000000000  1  # C
 82.814317449904  80.332462620315  12.700000000000  1  # C
 84.067646005970  79.640147039587  12.700000000000  1  # C
 81.533887496509  82.456350359461  12.700000000000  1  # C
 82.787216052574  81.764034778734  12.700000000000  1  # C
 80.253457543113  84.580238098608  12.700000000000  1  # C
 81.506786099179  83.887922517880  12.700000000000  1  # C
 78.973027589718  86.704125837754  12.700000000000  1  # C
 80.226356145783  86.011810257027  12.700000000000  1  # C
 77.692597636322  88.828013576901  12.700000000000  1  # C
 78.945926192388  88.135697996173  12.700000000000  1  # C
 76.412167682927  90.951901316047  12.700000000000  1  # C
 77.665496238992  90.259585735320  12.700000000000  1  # C
 75.131737729531  93.075789055194  12.700000000000  1  # C
 76.385066285597  92.383473474466  12.700000000000  1  # C
 73.851307776136  95.199676794340  12.700000000000  1  # C
 75.104636332201  94.507361213613  12.700000000000  1  # C
 72.570877822740  97.323564533487  12.700000000000  1  # C
 73.824206378806  96.631248952759  12.700000000000  1  # C
 71.290447869345  99.447452272633  12.700000000000  1  # C
 72.543776425410  98.755136691906  12.700000000000  1  # C
 70.010017915949  101.571340011780  12.700000000000  1  # C
 71.263346472015  100.879024431052  12.700000000000  1  # C
 68.729587962554  103.695227750926  12.700000000000  1  # C
 69.982916518619  103.002912170198  12.700000000000  1  # C
 67.449158009158  105.819115490072  12.700000000000  1  # C
 68.702486565224  105.126799909345  12.700000000000  1  # C
 66.168728055763  107.943003229219  12.700000000000  1  # C
 67.422056611828  107.250687648491  12.700000000000  1  # C
 64.888298102367  110.066890968365  12.700000000000  1  # C
 66.141626658433  109.374575387638  12.700000000000  1  # C
 63.607868148972  112.190778707512  12.700000000000  1  # C
 64.861196705037  111.498463126784  12.700000000000  1  # C
 62.327438195576  114.314666446658  12.700000000000  1  # C
 63.580766751642  113.622350865931  12.700000000000  1  # C
 61.047008242181  116.438554185805  12.700000000000  1  # C
 62.300336798247  115.746238605077  12.700000000000  1  # C
 59.766578288785  118.562441924951  12.700000000000  1  # C
 61.019906844851  117.870126344224  12.700000000000  1  # C
 58.486148335390  120.686329664098  12.700000000000  1  # C
 59.739476891456  119.994014083370  12.700000000000  1  # C
 57.205718381994  122.810217403244  12.700000000000  1  # C
 58.459046938060  122.117901822517  12.700000000000  1  # C
 55.925288428599  124.934105142391  12.700000000000  1  # C
 57.178616984665  124.241789561663  12.700000000000  1  # C
 54.644858475203  127.057992881537  12.700000000000  1  # C
 55.898187031269  126.365677300809  12.700000000000  1  # C
 53.364428521808  129.181880620683  12.700000000000  1  # C
 54.617757077874  128.489565039956  12.700000000000  1  # C
 52.083998568412  131.305768359830  12.700000000000  1  # C
 53.337327124478  130.613452779102  12.700000000000  1  # C
 50.803568615017  133.429656098976  12.700000000000  1  # C
 52.056897171083  132.737340518249  12.700000000000  1  # C
 49.523138661622  135.553543838123  12.700000000000  1  # C
 50.776467217687  134.861228257395  12.700000000000  1  # C
 48.242708708226  137.677431577269  12.700000000000  1  # C
 49.496037264292  136.985115996542  12.700000000000  1  # C
 46.962278754831  139.801319316416  12.700000000000  1  # C
 48.215607310896  139.109003735688  12.700000000000  1  # C
 45.681848801435  141.925207055562  12.700000000000  1  # C
 46.935177357501  141.232891474835  12.700000000000  1  # C
 44.401418848040  144.049094794709  12.700000000000  1  # C
 45.654747404105  143.356779213981  12.700000000000  1  # C
 43.120988894644  146.172982533855  12.700000000000  1  # C
 44.374317450710  145.480666953128  12.700000000000  1  # C
 41.840558941249  148.296870273002  12.700000000000  1  # C
 43.093887497314  147.604554692274  12.700000000000  1  # C
 40.560128987853  150.420758012148  12.700000000000  1  # C
 41.813457543919  149.728442431420  12.700000000000  1  # C
 39.279699034458  152.544645751294  12.700000000000  1  # C
 40.533027590523  151.852330170567  12.700000000000  1  # C
 39.252597637128  153.976217909713  12.700000000000  1  # C
 98.098172698657  59.140526226014  12.700000000000  1  # C
 96.817742745261  61.264413965161  12.700000000000  1  # C
 98.071071301327  60.572098384433  12.700000000000  1  # C
 95.537312791866  63.388301704307  12.700000000000  1  # C
 96.790641347931  62.695986123580  12.700000000000  1  # C
 94.256882838470  65.512189443454  12.700000000000  1  # C
 95.510211394536  64.819873862726  12.700000000000  1  # C
 92.976452885075  67.636077182600  12.700000000000  1  # C
 94.229781441140  66.943761601873  12.700000000000  1  # C
 91.696022931679  69.759964921747  12.700000000000  1  # C
 92.949351487745  69.067649341019  12.700000000000  1  # C
 90.415592978284  71.883852660893  12.700000000000  1  # C
 91.668921534349  71.191537080166  12.700000000000  1  # C
 89.135163024888  74.007740400040  12.700000000000  1  # C
 90.388491580954  73.315424819312  12.700000000000  1  # C
 87.854733071493  76.131628139186  12.700000000000  1  # C
 89.108061627558  75.439312558458  12.700000000000  1  # C
 86.574303118097  78.255515878332  12.700000000000  1  # C
 87.827631674163  77.563200297605  12.700000000000  1  # C
 85.293873164702  80.379403617479  12.700000000000  1  # C
 86.547201720767  79.687088036751  12.700000000000  1  # C
 84.013443211306  82.503291356625  12.700000000000  1  # C
 85.266771767372  81.810975775898  12.700000000000  1  # C
 82.733013257911  84.627179095772  12.700000000000  1  # C
 83.986341813976  83.934863515044  12.700000000000  1  # C
 81.452583304515  86.751066834918  12.700000000000  1  # C
 82.705911860581  86.058751254191  12.700000000000  1  # C
 80.172153351120  88.874954574065  12.700000000000  1  # C
 81.425481907185  88.182638993337  12.700000000000  1  # C
 78.891723397724  90.998842313211  12.700000000000  1  # C
 80.145051953790  90.306526732484  12.700000000000  1  # C
 77.611293444329  93.122730052358  12.700000000000  1  # C
 78.864622000394  92.430414471630  12.700000000000  1  # C
 76.330863490933  95.246617791504  12.700000000000  1  # C
 77.584192046999  94.554302210777  12.700000000000  1  # C
 75.050433537538  97.370505530651  12.700000000000  1  # C
 76.303762093603  96.678189949923  12.700000000000  1  # C
 73.770003584142  99.494393269797  12.700000000000  1  # C
 75.023332140208  98.802077689069  12.700000000000  1  # C
 72.489573630747  101.618281008943  12.700000000000  1  # C
 73.742902186812  100.925965428216  12.700000000000  1  # C
 71.209143677351  103.742168748090  12.700000000000  1  # C
 72.462472233417  103.049853167362  12.700000000000  1  # C
 69.928713723956  105.866056487236  12.700000000000  1  # C
 71.182042280021  105.173740906509  12.700000000000  1  # C
 68.648283770560  107.989944226383  12.700000000000  1  # C
 69.901612326626  107.297628645655  12.700000000000  1  # C
 67.367853817165  110.113831965529  12.700000000000  1  # C
 68.621182373230  109.421516384802  12.700000000000  1  # C
 66.087423863769  112.237719704676  12.700000000000  1  # C
 67.340752419835  111.545404123948  12.700000000000  1  # C
 64.806993910374  114.361607443822  12.700000000000  1  # C
 66.060322466440  113.669291863095  12.700000000000  1  # C
 63.526563956978  116.485495182969  12.700000000000  1  # C
 64.779892513044  115.793179602241  12.700000000000  1  # C
 62.246134003583  118.609382922115  12.700000000000  1  # C
 63.499462559649  117.917067341388  12.700000000000  1  # C
 60.965704050187  120.733270661262  12.700000000000  1  # C
 62.219032606253  120.040955080534  12.700000000000  1  # C
 59.685274096792  122.857158400408  12.700000000000  1  # C
 60.938602652858  122.164842819681  12.700000000000  1  # C
 58.404844143397  124.981046139554  12.700000000000  1  # C
 59.658172699462  124.288730558827  12.700000000000  1  # C
 57.124414190001  127.104933878701  12.700000000000  1  # C
 58.377742746067  126.412618297973  12.700000000000  1  # C
 55.843984236606  129.228821617847  12.700000000000  1  # C
 57.097312792671  128.536506037120  12.700000000000  1  # C
 54.563554283210  131.352709356994  12.700000000000  1  # C
 55.816882839276  130.660393776266  12.700000000000  1  # C
 53.283124329815  133.476597096140  12.700000000000  1  # C
 54.536452885880  132.784281515413  12.700000000000  1  # C
 52.002694376419  135.600484835287  12.700000000000  1  # C
 53.256022932485  134.908169254559  12.700000000000  1  # C
 50.722264423024  137.724372574433  12.700000000000  1  # C
 51.975592979089  137.032056993706  12.700000000000  1  # C
 49.441834469628  139.848260313580  12.700000000000  1  # C
 50.695163025694  139.155944732852  12.700000000000  1  # C
 48.161404516233  141.972148052726  12.700000000000  1  # C
 49.414733072298  141.279832471999  12.700000000000  1  # C
 46.880974562837  144.096035791873  12.700000000000  1  # C
 48.134303118903  143.403720211145  12.700000000000  1  # C
 45.600544609442  146.219923531019  12.700000000000  1  # C
 46.853873165507  145.527607950291  12.700000000000  1  # C
 44.320114656046  148.343811270165  12.700000000000  1  # C
 45.573443212112  147.651495689438  12.700000000000  1  # C
 43.039684702651  150.467699009312  12.700000000000  1  # C
 44.293013258716  149.775383428584  12.700000000000  1  # C
 41.759254749255  152.591586748458  12.700000000000  1  # C
 43.012583305321  151.899271167731  12.700000000000  1  # C
 40.478824795860  154.715474487605  12.700000000000  1  # C
 41.732153351925  154.023158906877  12.700000000000  1  # C
 99.297298460059  61.311354962325  12.700000000000  1  # C
 100.550627016124  60.619039381597  12.700000000000  1  # C
 98.016868506663  63.435242701471  12.700000000000  1  # C
 99.270197062729  62.742927120744  12.700000000000  1  # C
 96.736438553268  65.559130440618  12.700000000000  1  # C
 97.989767109333  64.866814859890  12.700000000000  1  # C
 95.456008599872  67.683018179764  12.700000000000  1  # C
 96.709337155938  66.990702599037  12.700000000000  1  # C
 94.175578646477  69.806905918911  12.700000000000  1  # C
 95.428907202542  69.114590338183  12.700000000000  1  # C
 92.895148693081  71.930793658057  12.700000000000  1  # C
 94.148477249147  71.238478077330  12.700000000000  1  # C
 91.614718739686  74.054681397203  12.700000000000  1  # C
 92.868047295751  73.362365816476  12.700000000000  1  # C
 90.334288786290  76.178569136350  12.700000000000  1  # C
 91.587617342356  75.486253555622  12.700000000000  1  # C
 89.053858832895  78.302456875496  12.700000000000  1  # C
 90.307187388960  77.610141294769  12.700000000000  1  # C
 87.773428879499  80.426344614643  12.700000000000  1  # C
 89.026757435565  79.734029033915  12.700000000000  1  # C
 86.492998926104  82.550232353789  12.700000000000  1  # C
 87.746327482169  81.857916773062  12.700000000000  1  # C
 85.212568972708  84.674120092936  12.700000000000  1  # C
 86.465897528774  83.981804512208  12.700000000000  1  # C
 83.932139019313  86.798007832082  12.700000000000  1  # C
 85.185467575378  86.105692251355  12.700000000000  1  # C
 82.651709065917  88.921895571229  12.700000000000  1  # C
 83.905037621983  88.229579990501  12.700000000000  1  # C
 81.371279112522  91.045783310375  12.700000000000  1  # C
 82.624607668587  90.353467729648  12.700000000000  1  # C
 80.090849159126  93.169671049522  12.700000000000  1  # C
 81.344177715192  92.477355468794  12.700000000000  1  # C
 78.810419205731  95.293558788668  12.700000000000  1  # C
 80.063747761796  94.601243207940  12.700000000000  1  # C
 77.529989252335  97.417446527814  12.700000000000  1  # C
 78.783317808401  96.725130947087  12.700000000000  1  # C
 76.249559298940  99.541334266961  12.700000000000  1  # C
 77.502887855005  98.849018686233  12.700000000000  1  # C
 74.969129345544  101.665222006107  12.700000000000  1  # C
 76.222457901610  100.972906425380  12.700000000000  1  # C
 73.688699392149  103.789109745254  12.700000000000  1  # C
 74.942027948215  103.096794164526  12.700000000000  1  # C
 72.408269438753  105.912997484400  12.700000000000  1  # C
 73.661597994819  105.220681903673  12.700000000000  1  # C
 71.127839485358  108.036885223547  12.700000000000  1  # C
 72.381168041424  107.344569642819  12.700000000000  1  # C
 69.847409531962  110.160772962693  12.700000000000  1  # C
 71.100738088028  109.468457381966  12.700000000000  1  # C
 68.566979578567  112.284660701840  12.700000000000  1  # C
 69.820308134633  111.592345121112  12.700000000000  1  # C
 67.286549625171  114.408548440986  12.700000000000  1  # C
 68.539878181237  113.716232860259  12.700000000000  1  # C
 66.006119671776  116.532436180133  12.700000000000  1  # C
 67.259448227842  115.840120599405  12.700000000000  1  # C
 64.725689718381  118.656323919279  12.700000000000  1  # C
 65.979018274446  117.964008338552  12.700000000000  1  # C
 63.445259764985  120.780211658425  12.700000000000  1  # C
 64.698588321051  120.087896077698  12.700000000000  1  # C
 62.164829811590  122.904099397572  12.700000000000  1  # C
 63.418158367655  122.211783816844  12.700000000000  1  # C
 60.884399858194  125.027987136718  12.700000000000  1  # C
 62.137728414260  124.335671555991  12.700000000000  1  # C
 59.603969904799  127.151874875865  12.700000000000  1  # C
 60.857298460864  126.459559295137  12.700000000000  1  # C
 58.323539951403  129.275762615011  12.700000000000  1  # C
 59.576868507469  128.583447034284  12.700000000000  1  # C
 57.043109998008  131.399650354158  12.700000000000  1  # C
 58.296438554073  130.707334773430  12.700000000000  1  # C
 55.762680044612  133.523538093304  12.700000000000  1  # C
 57.016008600678  132.831222512577  12.700000000000  1  # C
 54.482250091217  135.647425832451  12.700000000000  1  # C
 55.735578647282  134.955110251723  12.700000000000  1  # C
 53.201820137821  137.771313571597  12.700000000000  1  # C
 54.455148693887  137.078997990870  12.700000000000  1  # C
 51.921390184426  139.895201310744  12.700000000000  1  # C
 53.174718740491  139.202885730016  12.700000000000  1  # C
 50.640960231030  142.019089049890  12.700000000000  1  # C
 51.894288787096  141.326773469163  12.700000000000  1  # C
 49.360530277635  144.142976789036  12.700000000000  1  # C
 50.613858833700  143.450661208309  12.700000000000  1  # C
 48.080100324239  146.266864528183  12.700000000000  1  # C
 49.333428880305  145.574548947455  12.700000000000  1  # C
 46.799670370844  148.390752267329  12.700000000000  1  # C
 48.052998926909  147.698436686602  12.700000000000  1  # C
 45.519240417448  150.514640006476  12.700000000000  1  # C
 46.772568973514  149.822324425748  12.700000000000  1  # C
 44.238810464053  152.638527745622  12.700000000000  1  # C
 45.492139020118  151.946212164895  12.700000000000  1  # C
 42.958380510657  154.762415484769  12.700000000000  1  # C
 44.211709066723  154.070099904041  12.700000000000  1  # C
 42.931279113327  156.193987643188  12.700000000000  1  # C
 101.776854174856  61.358295959489  12.700000000000  1  # C
 100.496424221461  63.482183698635  12.700000000000  1  # C
 101.749752777526  62.789868117908  12.700000000000  1  # C
 99.215994268065  65.606071437782  12.700000000000  1  # C
 100.469322824131  64.913755857054  12.700000000000  1  # C
 97.935564314670  67.729959176928  12.700000000000  1  # C
 99.188892870735  67.037643596200  12.700000000000  1  # C
 96.655134361274  69.853846916074  12.700000000000  1  # C
 97.908462917340  69.161531335347  12.700000000000  1  # C
 95.374704407879  71.977734655221  12.700000000000  1  # C
 96.628032963944  71.285419074493  12.700000000000  1  # C
 94.094274454483  74.101622394367  12.700000000000  1  # C
 95.347603010549  73.409306813640  12.700000000000  1  # C
 92.813844501088  76.225510133514  12.700000000000  1  # C
 94.067173057153  75.533194552786  12.700000000000  1  # C
 91.533414547692  78.349397872660  12.700000000000  1  # C
 92.786743103758  77.657082291933  12.700000000000  1  # C
 90.252984594297  80.473285611807  12.700000000000  1  # C
 91.506313150362  79.780970031079  12.700000000000  1  # C
 88.972554640901  82.597173350953  12.700000000000  1  # C
 90.225883196967  81.904857770226  12.700000000000  1  # C
 87.692124687506  84.721061090100  12.700000000000  1  # C
 88.945453243571  84.028745509372  12.700000000000  1  # C
 86.411694734110  86.844948829246  12.700000000000  1  # C
 87.665023290176  86.152633248519  12.700000000000  1  # C
 85.131264780715  88.968836568393  12.700000000000  1  # C
 86.384593336780  88.276520987665  12.700000000000  1  # C
 83.850834827319  91.092724307539  12.700000000000  1  # C
 85.104163383385  90.400408726811  12.700000000000  1  # C
 82.570404873924  93.216612046685  12.700000000000  1  # C
 83.823733429990  92.524296465958  12.700000000000  1  # C
 81.289974920528  95.340499785832  12.700000000000  1  # C
 82.543303476594  94.648184205104  12.700000000000  1  # C
 80.009544967133  97.464387524978  12.700000000000  1  # C
 81.262873523199  96.772071944251  12.700000000000  1  # C
 78.729115013737  99.588275264125  12.700000000000  1  # C
 79.982443569803  98.895959683397  12.700000000000  1  # C
 77.448685060342  101.712163003271  12.700000000000  1  # C
 78.702013616408  101.019847422544  12.700000000000  1  # C
 76.168255106946  103.836050742418  12.700000000000  1  # C
 77.421583663012  103.143735161690  12.700000000000  1  # C
 74.887825153551  105.959938481564  12.700000000000  1  # C
 76.141153709617  105.267622900837  12.700000000000  1  # C
 73.607395200156  108.083826220711  12.700000000000  1  # C
 74.860723756221  107.391510639983  12.700000000000  1  # C
 72.326965246760  110.207713959857  12.700000000000  1  # C
 73.580293802826  109.515398379130  12.700000000000  1  # C
 71.046535293365  112.331601699004  12.700000000000  1  # C
 72.299863849430  111.639286118276  12.700000000000  1  # C
 69.766105339969  114.455489438150  12.700000000000  1  # C
 71.019433896035  113.763173857423  12.700000000000  1  # C
 68.485675386574  116.579377177296  12.700000000000  1  # C
 69.739003942639  115.887061596569  12.700000000000  1  # C
 67.205245433178  118.703264916443  12.700000000000  1  # C
 68.458573989244  118.010949335715  12.700000000000  1  # C
 65.924815479783  120.827152655589  12.700000000000  1  # C
 67.178144035848  120.134837074862  12.700000000000  1  # C
 64.644385526387  122.951040394736  12.700000000000  1  # C
 65.897714082453  122.258724814008  12.700000000000  1  # C
 63.363955572992  125.074928133882  12.700000000000  1  # C
 64.617284129057  124.382612553155  12.700000000000  1  # C
 62.083525619596  127.198815873029  12.700000000000  1  # C
 63.336854175662  126.506500292301  12.700000000000  1  # C
 60.803095666201  129.322703612175  12.700000000000  1  # C
 62.056424222266  128.630388031448  12.700000000000  1  # C
 59.522665712805  131.446591351322  12.700000000000  1  # C
 60.775994268871  130.754275770594  12.700000000000  1  # C
 58.242235759410  133.570479090468  12.700000000000  1  # C
 59.495564315475  132.878163509741  12.700000000000  1  # C
 56.961805806014  135.694366829615  12.700000000000  1  # C
 58.215134362080  135.002051248887  12.700000000000  1  # C
 55.681375852619  137.818254568761  12.700000000000  1  # C
 56.934704408684  137.125938988034  12.700000000000  1  # C
 54.400945899223  139.942142307907  12.700000000000  1  # C
 55.654274455289  139.249826727180  12.700000000000  1  # C
 53.120515945828  142.066030047054  12.700000000000  1  # C
 54.373844501893  141.373714466326  12.700000000000  1  # C
 51.840085992432  144.189917786200  12.700000000000  1  # C
 53.093414548498  143.497602205473  12.700000000000  1  # C
 50.559656039037  146.313805525347  12.700000000000  1  # C
 51.812984595102  145.621489944619  12.700000000000  1  # C
 49.279226085641  148.437693264493  12.700000000000  1  # C
 50.532554641707  147.745377683766  12.700000000000  1  # C
 47.998796132246  150.561581003640  12.700000000000  1  # C
 49.252124688311  149.869265422912  12.700000000000  1  # C
 46.718366178850  152.685468742786  12.700000000000  1  # C
 47.971694734916  151.993153162059  12.700000000000  1  # C
 45.437936225455  154.809356481933  12.700000000000  1  # C
 46.691264781520  154.117040901205  12.700000000000  1  # C
 44.157506272059  156.933244221079  12.700000000000  1  # C
 45.410834828125  156.240928640352  12.700000000000  1  # C
 102.975979936258  63.529124695799  12.700000000000  1  # C
 104.229308492324  62.836809115072  12.700000000000  1  # C
 101.695549982863  65.653012434945  12.700000000000  1  # C
 102.948878538928  64.960696854218  12.700000000000  1  # C
 100.415120029467  67.776900174092  12.700000000000  1  # C
 101.668448585533  67.084584593364  12.700000000000  1  # C
 99.134690076072  69.900787913238  12.700000000000  1  # C
 100.388018632137  69.208472332511  12.700000000000  1  # C
 97.854260122676  72.024675652385  12.700000000000  1  # C
 99.107588678742  71.332360071657  12.700000000000  1  # C
 96.573830169281  74.148563391531  12.700000000000  1  # C
 97.827158725346  73.456247810804  12.700000000000  1  # C
 95.293400215885  76.272451130678  12.700000000000  1  # C
 96.546728771951  75.580135549950  12.700000000000  1  # C
 94.012970262490  78.396338869824  12.700000000000  1  # C
 95.266298818555  77.704023289097  12.700000000000  1  # C
 92.732540309094  80.520226608971  12.700000000000  1  # C
 93.985868865160  79.827911028243  12.700000000000  1  # C
 91.452110355699  82.644114348117  12.700000000000  1  # C
 92.705438911764  81.951798767390  12.700000000000  1  # C
 90.171680402303  84.768002087264  12.700000000000  1  # C
 91.425008958369  84.075686506536  12.700000000000  1  # C
 88.891250448908  86.891889826410  12.700000000000  1  # C
 90.144579004974  86.199574245682  12.700000000000  1  # C
 87.610820495512  89.015777565556  12.700000000000  1  # C
 88.864149051578  88.323461984829  12.700000000000  1  # C
 86.330390542117  91.139665304703  12.700000000000  1  # C
 87.583719098183  90.447349723975  12.700000000000  1  # C
 85.049960588721  93.263553043849  12.700000000000  1  # C
 86.303289144787  92.571237463122  12.700000000000  1  # C
 83.769530635326  95.387440782996  12.700000000000  1  # C
 85.022859191392  94.695125202268  12.700000000000  1  # C
 82.489100681931  97.511328522142  12.700000000000  1  # C
 83.742429237996  96.819012941415  12.700000000000  1  # C
 81.208670728535  99.635216261289  12.700000000000  1  # C
 82.461999284601  98.942900680561  12.700000000000  1  # C
 79.928240775140  101.759104000435  12.700000000000  1  # C
 81.181569331205  101.066788419708  12.700000000000  1  # C
 78.647810821744  103.882991739582  12.700000000000  1  # C
 79.901139377810  103.190676158854  12.700000000000  1  # C
 77.367380868349  106.006879478728  12.700000000000  1  # C
 78.620709424414  105.314563898001  12.700000000000  1  # C
 76.086950914953  108.130767217875  12.700000000000  1  # C
 77.340279471019  107.438451637147  12.700000000000  1  # C
 74.806520961558  110.254654957021  12.700000000000  1  # C
 76.059849517623  109.562339376294  12.700000000000  1  # C
 73.526091008162  112.378542696167  12.700000000000  1  # C
 74.779419564228  111.686227115440  12.700000000000  1  # C
 72.245661054767  114.502430435314  12.700000000000  1  # C
 73.498989610832  113.810114854586  12.700000000000  1  # C
 70.965231101371  116.626318174460  12.700000000000  1  # C
 72.218559657437  115.934002593733  12.700000000000  1  # C
 69.684801147976  118.750205913607  12.700000000000  1  # C
 70.938129704041  118.057890332879  12.700000000000  1  # C
 68.404371194580  120.874093652753  12.700000000000  1  # C
 69.657699750646  120.181778072026  12.700000000000  1  # C
 67.123941241185  122.997981391900  12.700000000000  1  # C
 68.377269797250  122.305665811172  12.700000000000  1  # C
 65.843511287789  125.121869131046  12.700000000000  1  # C
 67.096839843855  124.429553550319  12.700000000000  1  # C
 64.563081334394  127.245756870193  12.700000000000  1  # C
 65.816409890459  126.553441289465  12.700000000000  1  # C
 63.282651380998  129.369644609339  12.700000000000  1  # C
 64.535979937064  128.677329028612  12.700000000000  1  # C
 62.002221427603  131.493532348486  12.700000000000  1  # C
 63.255549983668  130.801216767758  12.700000000000  1  # C
 60.721791474207  133.617420087632  12.700000000000  1  # C
 61.975120030273  132.925104506904  12.700000000000  1  # C
 59.441361520812  135.741307826778  12.700000000000  1  # C
 60.694690076877  135.048992246051  12.700000000000  1  # C
 58.160931567416  137.865195565925  12.700000000000  1  # C
 59.414260123482  137.172879985197  12.700000000000  1  # C
 56.880501614021  139.989083305071  12.700000000000  1  # C
 58.133830170086  139.296767724344  12.700000000000  1  # C
 55.600071660625  142.112971044218  12.700000000000  1  # C
 56.853400216691  141.420655463490  12.700000000000  1  # C
 54.319641707230  144.236858783364  12.700000000000  1  # C
 55.572970263295  143.544543202637  12.700000000000  1  # C
 53.039211753834  146.360746522511  12.700000000000  1  # C
 54.292540309900  145.668430941783  12.700000000000  1  # C
 51.758781800439  148.484634261657  12.700000000000  1  # C
 53.012110356504  147.792318680930  12.700000000000  1  # C
 50.478351847043  150.608522000804  12.700000000000  1  # C
 51.731680403109  149.916206420076  12.700000000000  1  # C
 49.197921893648  152.732409739950  12.700000000000  1  # C
 50.451250449714  152.040094159223  12.700000000000  1  # C
 47.917491940252  154.856297479097  12.700000000000  1  # C
 49.170820496318  154.163981898369  12.700000000000  1  # C
 46.637061986857  156.980185218243  12.700000000000  1  # C
 47.890390542923  156.287869637515  12.700000000000  1  # C
 46.609960589527  158.411757376662  12.700000000000  1  # C
 105.455535651056  63.576065692963  12.700000000000  1  # C
 104.175105697660  65.699953432109  12.700000000000  1  # C
 105.428434253726  65.007637851382  12.700000000000  1  # C
 102.894675744265  67.823841171256  12.700000000000  1  # C
 104.148004300330  67.131525590528  12.700000000000  1  # C
 101.614245790869  69.947728910402  12.700000000000  1  # C
 102.867574346935  69.255413329675  12.700000000000  1  # C
 100.333815837474  72.071616649549  12.700000000000  1  # C
 101.587144393539  71.379301068821  12.700000000000  1  # C
 99.053385884078  74.195504388695  12.700000000000  1  # C
 100.306714440144  73.503188807968  12.700000000000  1  # C
 97.772955930683  76.319392127842  12.700000000000  1  # C
 99.026284486749  75.627076547114  12.700000000000  1  # C
 96.492525977287  78.443279866988  12.700000000000  1  # C
 97.745854533353  77.750964286261  12.700000000000  1  # C
 95.212096023892  80.567167606135  12.700000000000  1  # C
 96.465424579958  79.874852025407  12.700000000000  1  # C
 93.931666070496  82.691055345281  12.700000000000  1  # C
 95.184994626562  81.998739764554  12.700000000000  1  # C
 92.651236117101  84.814943084427  12.700000000000  1  # C
 93.904564673167  84.122627503700  12.700000000000  1  # C
 91.370806163705  86.938830823574  12.700000000000  1  # C
 92.624134719771  86.246515242846  12.700000000000  1  # C
 90.090376210310  89.062718562720  12.700000000000  1  # C
 91.343704766376  88.370402981993  12.700000000000  1  # C
 88.809946256915  91.186606301867  12.700000000000  1  # C
 90.063274812980  90.494290721139  12.700000000000  1  # C
 87.529516303519  93.310494041013  12.700000000000  1  # C
 88.782844859585  92.618178460286  12.700000000000  1  # C
 86.249086350124  95.434381780160  12.700000000000  1  # C
 87.502414906189  94.742066199432  12.700000000000  1  # C
 84.968656396728  97.558269519306  12.700000000000  1  # C
 86.221984952794  96.865953938579  12.700000000000  1  # C
 83.688226443333  99.682157258453  12.700000000000  1  # C
 84.941554999398  98.989841677725  12.700000000000  1  # C
 82.407796489937  101.806044997599  12.700000000000  1  # C
 83.661125046003  101.113729416872  12.700000000000  1  # C
 81.127366536542  103.929932736746  12.700000000000  1  # C
 82.380695092607  103.237617156018  12.700000000000  1  # C
 79.846936583146  106.053820475892  12.700000000000  1  # C
 81.100265139212  105.361504895165  12.700000000000  1  # C
 78.566506629751  108.177708215038  12.700000000000  1  # C
 79.819835185816  107.485392634311  12.700000000000  1  # C
 77.286076676355  110.301595954185  12.700000000000  1  # C
 78.539405232421  109.609280373457  12.700000000000  1  # C
 76.005646722960  112.425483693331  12.700000000000  1  # C
 77.258975279025  111.733168112604  12.700000000000  1  # C
 74.725216769564  114.549371432478  12.700000000000  1  # C
 75.978545325630  113.857055851750  12.700000000000  1  # C
 73.444786816169  116.673259171624  12.700000000000  1  # C
 74.698115372234  115.980943590897  12.700000000000  1  # C
 72.164356862773  118.797146910771  12.700000000000  1  # C
 73.417685418839  118.104831330043  12.700000000000  1  # C
 70.883926909378  120.921034649917  12.700000000000  1  # C
 72.137255465443  120.228719069190  12.700000000000  1  # C
 69.603496955982  123.044922389064  12.700000000000  1  # C
 70.856825512048  122.352606808336  12.700000000000  1  # C
 68.323067002587  125.168810128210  12.700000000000  1  # C
 69.576395558652  124.476494547483  12.700000000000  1  # C
 67.042637049191  127.292697867357  12.700000000000  1  # C
 68.295965605257  126.600382286629  12.700000000000  1  # C
 65.762207095796  129.416585606503  12.700000000000  1  # C
 67.015535651861  128.724270025776  12.700000000000  1  # C
 64.481777142400  131.540473345649  12.700000000000  1  # C
 65.735105698466  130.848157764922  12.700000000000  1  # C
 63.201347189005  133.664361084796  12.700000000000  1  # C
 64.454675745070  132.972045504068  12.700000000000  1  # C
 61.920917235609  135.788248823942  12.700000000000  1  # C
 63.174245791675  135.095933243215  12.700000000000  1  # C
 60.640487282214  137.912136563089  12.700000000000  1  # C
 61.893815838279  137.219820982361  12.700000000000  1  # C
 59.360057328818  140.036024302235  12.700000000000  1  # C
 60.613385884884  139.343708721508  12.700000000000  1  # C
 58.079627375423  142.159912041382  12.700000000000  1  # C
 59.332955931488  141.467596460654  12.700000000000  1  # C
 56.799197422027  144.283799780528  12.700000000000  1  # C
 58.052525978093  143.591484199801  12.700000000000  1  # C
 55.518767468632  146.407687519675  12.700000000000  1  # C
 56.772096024698  145.715371938947  12.700000000000  1  # C
 54.238337515236  148.531575258821  12.700000000000  1  # C
 55.491666071302  147.839259678094  12.700000000000  1  # C
 52.957907561841  150.655462997968  12.700000000000  1  # C
 54.211236117907  149.963147417240  12.700000000000  1  # C
 51.677477608445  152.779350737114  12.700000000000  1  # C
 52.930806164511  152.087035156387  12.700000000000  1  # C
 50.397047655050  154.903238476260  12.700000000000  1  # C
 51.650376211116  154.210922895533  12.700000000000  1  # C
 49.116617701654  157.027126215407  12.700000000000  1  # C
 50.369946257720  156.334810634679  12.700000000000  1  # C
 47.836187748259  159.151013954553  12.700000000000  1  # C
 49.089516304325  158.458698373826  12.700000000000  1  # C
 106.654661412458  65.746894429273  12.700000000000  1  # C
 107.907989968523  65.054578848546  12.700000000000  1  # C
 105.374231459062  67.870782168420  12.700000000000  1  # C
 106.627560015128  67.178466587692  12.700000000000  1  # C
 104.093801505667  69.994669907566  12.700000000000  1  # C
 105.347130061733  69.302354326839  12.700000000000  1  # C
 102.813371552271  72.118557646713  12.700000000000  1  # C
 104.066700108337  71.426242065985  12.700000000000  1  # C
 101.532941598876  74.242445385859  12.700000000000  1  # C
 102.786270154942  73.550129805132  12.700000000000  1  # C
 100.252511645480  76.366333125006  12.700000000000  1  # C
 101.505840201546  75.674017544278  12.700000000000  1  # C
 98.972081692085  78.490220864152  12.700000000000  1  # C
 100.225410248151  77.797905283425  12.700000000000  1  # C
 97.691651738690  80.614108603298  12.700000000000  1  # C
 98.944980294755  79.921793022571  12.700000000000  1  # C
 96.411221785294  82.737996342445  12.700000000000  1  # C
 97.664550341360  82.045680761717  12.700000000000  1  # C
 95.130791831899  84.861884081591  12.700000000000  1  # C
 96.384120387964  84.169568500864  12.700000000000  1  # C
 93.850361878503  86.985771820738  12.700000000000  1  # C
 95.103690434569  86.293456240010  12.700000000000  1  # C
 92.569931925108  89.109659559884  12.700000000000  1  # C
 93.823260481173  88.417343979157  12.700000000000  1  # C
 91.289501971712  91.233547299031  12.700000000000  1  # C
 92.542830527778  90.541231718303  12.700000000000  1  # C
 90.009072018317  93.357435038177  12.700000000000  1  # C
 91.262400574382  92.665119457450  12.700000000000  1  # C
 88.728642064921  95.481322777324  12.700000000000  1  # C
 89.981970620987  94.789007196596  12.700000000000  1  # C
 87.448212111526  97.605210516470  12.700000000000  1  # C
 88.701540667591  96.912894935743  12.700000000000  1  # C
 86.167782158130  99.729098255617  12.700000000000  1  # C
 87.421110714196  99.036782674889  12.700000000000  1  # C
 84.887352204735  101.852985994763  12.700000000000  1  # C
 86.140680760800  101.160670414036  12.700000000000  1  # C
 83.606922251339  103.976873733909  12.700000000000  1  # C
 84.860250807405  103.284558153182  12.700000000000  1  # C
 82.326492297944  106.100761473056  12.700000000000  1  # C
 83.579820854009  105.408445892328  12.700000000000  1  # C
 81.046062344548  108.224649212202  12.700000000000  1  # C
 82.299390900614  107.532333631475  12.700000000000  1  # C
 79.765632391153  110.348536951349  12.700000000000  1  # C
 81.018960947218  109.656221370621  12.700000000000  1  # C
 78.485202437757  112.472424690495  12.700000000000  1  # C
 79.738530993823  111.780109109768  12.700000000000  1  # C
 77.204772484362  114.596312429642  12.700000000000  1  # C
 78.458101040427  113.903996848914  12.700000000000  1  # C
 75.924342530966  116.720200168788  12.700000000000  1  # C
 77.177671087032  116.027884588061  12.700000000000  1  # C
 74.643912577571  118.844087907935  12.700000000000  1  # C
 75.897241133636  118.151772327207  12.700000000000  1  # C
 73.363482624175  120.967975647081  12.700000000000  1  # C
 74.616811180241  120.275660066354  12.700000000000  1  # C
 72.083052670780  123.091863386228  12.700000000000  1  # C
 73.336381226845  122.399547805500  12.700000000000  1  # C
 70.802622717384  125.215751125374  12.700000000000  1  # C
 72.055951273450  124.523435544647  12.700000000000  1  # C
 69.522192763989  127.339638864520  12.700000000000  1  # C
 70.775521320054  126.647323283793  12.700000000000  1  # C
 68.241762810593  129.463526603667  12.700000000000  1  # C
 69.495091366659  128.771211022939  12.700000000000  1  # C
 66.961332857198  131.587414342813  12.700000000000  1  # C
 68.214661413263  130.895098762086  12.700000000000  1  # C
 65.680902903802  133.711302081960  12.700000000000  1  # C
 66.934231459868  133.018986501232  12.700000000000  1  # C
 64.400472950407  135.835189821106  12.700000000000  1  # C
 65.653801506473  135.142874240379  12.700000000000  1  # C
 63.120042997011  137.959077560253  12.700000000000  1  # C
 64.373371553077  137.266761979525  12.700000000000  1  # C
 61.839613043616  140.082965299399  12.700000000000  1  # C
 63.092941599682  139.390649718672  12.700000000000  1  # C
 60.559183090220  142.206853038546  12.700000000000  1  # C
 61.812511646286  141.514537457818  12.700000000000  1  # C
 59.278753136825  144.330740777692  12.700000000000  1  # C
 60.532081692891  143.638425196965  12.700000000000  1  # C
 57.998323183429  146.454628516839  12.700000000000  1  # C
 59.251651739495  145.762312936111  12.700000000000  1  # C
 56.717893230034  148.578516255985  12.700000000000  1  # C
 57.971221786100  147.886200675257  12.700000000000  1  # C
 55.437463276639  150.702403995131  12.700000000000  1  # C
 56.690791832704  150.010088414404  12.700000000000  1  # C
 54.157033323243  152.826291734278  12.700000000000  1  # C
 55.410361879309  152.133976153550  12.700000000000  1  # C
 52.876603369848  154.950179473424  12.700000000000  1  # C
 54.129931925913  154.257863892697  12.700000000000  1  # C
 51.596173416452  157.074067212571  12.700000000000  1  # C
 52.849501972518  156.381751631843  12.700000000000  1  # C
 50.315743463057  159.197954951717  12.700000000000  1  # C
 51.569072019122  158.505639370990  12.700000000000  1  # C
 50.288642065727  160.629527110136  12.700000000000  1  # C
 109.134217127255  65.793835426437  12.700000000000  1  # C
 107.853787173860  67.917723165584  12.700000000000  1  # C
 109.107115729926  67.225407584856  12.700000000000  1  # C
 106.573357220464  70.041610904730  12.700000000000  1  # C
 107.826685776530  69.349295324003  12.700000000000  1  # C
 105.292927267069  72.165498643877  12.700000000000  1  # C
 106.546255823135  71.473183063149  12.700000000000  1  # C
 104.012497313674  74.289386383023  12.700000000000  1  # C
 105.265825869739  73.597070802296  12.700000000000  1  # C
 102.732067360278  76.413274122169  12.700000000000  1  # C
 103.985395916344  75.720958541442  12.700000000000  1  # C
 101.451637406883  78.537161861316  12.700000000000  1  # C
 102.704965962948  77.844846280588  12.700000000000  1  # C
 100.171207453487  80.661049600462  12.700000000000  1  # C
 101.424536009553  79.968734019735  12.700000000000  1  # C
 98.890777500092  82.784937339609  12.700000000000  1  # C
 100.144106056157  82.092621758881  12.700000000000  1  # C
 97.610347546696  84.908825078755  12.700000000000  1  # C
 98.863676102762  84.216509498028  12.700000000000  1  # C
 96.329917593301  87.032712817902  12.700000000000  1  # C
 97.583246149366  86.340397237174  12.700000000000  1  # C
 95.049487639905  89.156600557048  12.700000000000  1  # C
 96.302816195971  88.464284976321  12.700000000000  1  # C
 93.769057686510  91.280488296195  12.700000000000  1  # C
 95.022386242575  90.588172715467  12.700000000000  1  # C
 92.488627733114  93.404376035341  12.700000000000  1  # C
 93.741956289180  92.712060454614  12.700000000000  1  # C
 91.208197779719  95.528263774488  12.700000000000  1  # C
 92.461526335784  94.835948193760  12.700000000000  1  # C
 89.927767826323  97.652151513634  12.700000000000  1  # C
 91.181096382389  96.959835932907  12.700000000000  1  # C
 88.647337872928  99.776039252780  12.700000000000  1  # C
 89.900666428993  99.083723672053  12.700000000000  1  # C
 87.366907919532  101.899926991927  12.700000000000  1  # C
 88.620236475598  101.207611411199  12.700000000000  1  # C
 86.086477966137  104.023814731073  12.700000000000  1  # C
 87.339806522202  103.331499150346  12.700000000000  1  # C
 84.806048012741  106.147702470220  12.700000000000  1  # C
 86.059376568807  105.455386889492  12.700000000000  1  # C
 83.525618059346  108.271590209366  12.700000000000  1  # C
 84.778946615411  107.579274628639  12.700000000000  1  # C
 82.245188105950  110.395477948513  12.700000000000  1  # C
 83.498516662016  109.703162367785  12.700000000000  1  # C
 80.964758152555  112.519365687659  12.700000000000  1  # C
 82.218086708620  111.827050106932  12.700000000000  1  # C
 79.684328199159  114.643253426806  12.700000000000  1  # C
 80.937656755225  113.950937846078  12.700000000000  1  # C
 78.403898245764  116.767141165952  12.700000000000  1  # C
 79.657226801829  116.074825585225  12.700000000000  1  # C
 77.123468292368  118.891028905099  12.700000000000  1  # C
 78.376796848434  118.198713324371  12.700000000000  1  # C
 75.843038338973  121.014916644245  12.700000000000  1  # C
 77.096366895038  120.322601063518  12.700000000000  1  # C
 74.562608385577  123.138804383391  12.700000000000  1  # C
 75.815936941643  122.446488802664  12.700000000000  1  # C
 73.282178432182  125.262692122538  12.700000000000  1  # C
 74.535506988248  124.570376541810  12.700000000000  1  # C
 72.001748478786  127.386579861684  12.700000000000  1  # C
 73.255077034852  126.694264280957  12.700000000000  1  # C
 70.721318525391  129.510467600831  12.700000000000  1  # C
 71.974647081457  128.818152020103  12.700000000000  1  # C
 69.440888571995  131.634355339977  12.700000000000  1  # C
 70.694217128061  130.942039759250  12.700000000000  1  # C
 68.160458618600  133.758243079124  12.700000000000  1  # C
 69.413787174666  133.065927498396  12.700000000000  1  # C
 66.880028665204  135.882130818270  12.700000000000  1  # C
 68.133357221270  135.189815237543  12.700000000000  1  # C
 65.599598711809  138.006018557417  12.700000000000  1  # C
 66.852927267875  137.313702976689  12.700000000000  1  # C
 64.319168758414  140.129906296563  12.700000000000  1  # C
 65.572497314479  139.437590715836  12.700000000000  1  # C
 63.038738805018  142.253794035710  12.700000000000  1  # C
 64.292067361084  141.561478454982  12.700000000000  1  # C
 61.758308851623  144.377681774856  12.700000000000  1  # C
 63.011637407688  143.685366194129  12.700000000000  1  # C
 60.477878898227  146.501569514002  12.700000000000  1  # C
 61.731207454293  145.809253933275  12.700000000000  1  # C
 59.197448944832  148.625457253149  12.700000000000  1  # C
 60.450777500897  147.933141672421  12.700000000000  1  # C
 57.917018991436  150.749344992295  12.700000000000  1  # C
 59.170347547502  150.057029411568  12.700000000000  1  # C
 56.636589038041  152.873232731442  12.700000000000  1  # C
 57.889917594106  152.180917150714  12.700000000000  1  # C
 55.356159084645  154.997120470588  12.700000000000  1  # C
 56.609487640711  154.304804889861  12.700000000000  1  # C
 54.075729131250  157.121008209735  12.700000000000  1  # C
 55.329057687315  156.428692629007  12.700000000000  1  # C
 52.795299177854  159.244895948881  12.700000000000  1  # C
 54.048627733920  158.552580368154  12.700000000000  1  # C
 51.514869224459  161.368783688028  12.700000000000  1  # C
 52.768197780524  160.676468107300  12.700000000000  1  # C
 110.333342888658  67.964664162748  12.700000000000  1  # C
 111.586671444723  67.272348582020  12.700000000000  1  # C
 109.052912935262  70.088551901894  12.700000000000  1  # C
 110.306241491328  69.396236321167  12.700000000000  1  # C
 107.772482981867  72.212439641040  12.700000000000  1  # C
 109.025811537932  71.520124060313  12.700000000000  1  # C
 106.492053028471  74.336327380187  12.700000000000  1  # C
 107.745381584537  73.644011799459  12.700000000000  1  # C
 105.211623075076  76.460215119333  12.700000000000  1  # C
 106.464951631141  75.767899538606  12.700000000000  1  # C
 103.931193121680  78.584102858480  12.700000000000  1  # C
 105.184521677746  77.891787277752  12.700000000000  1  # C
 102.650763168285  80.707990597626  12.700000000000  1  # C
 103.904091724350  80.015675016899  12.700000000000  1  # C
 101.370333214889  82.831878336773  12.700000000000  1  # C
 102.623661770955  82.139562756045  12.700000000000  1  # C
 100.089903261494  84.955766075919  12.700000000000  1  # C
 101.343231817559  84.263450495192  12.700000000000  1  # C
 98.809473308098  87.079653815066  12.700000000000  1  # C
 100.062801864164  86.387338234338  12.700000000000  1  # C
 97.529043354703  89.203541554212  12.700000000000  1  # C
 98.782371910768  88.511225973485  12.700000000000  1  # C
 96.248613401307  91.327429293359  12.700000000000  1  # C
 97.501941957373  90.635113712631  12.700000000000  1  # C
 94.968183447912  93.451317032505  12.700000000000  1  # C
 96.221512003977  92.759001451778  12.700000000000  1  # C
 93.687753494516  95.575204771651  12.700000000000  1  # C
 94.941082050582  94.882889190924  12.700000000000  1  # C
 92.407323541121  97.699092510798  12.700000000000  1  # C
 93.660652097186  97.006776930070  12.700000000000  1  # C
 91.126893587725  99.822980249944  12.700000000000  1  # C
 92.380222143791  99.130664669217  12.700000000000  1  # C
 89.846463634330  101.946867989091  12.700000000000  1  # C
 91.099792190395  101.254552408363  12.700000000000  1  # C
 88.566033680934  104.070755728237  12.700000000000  1  # C
 89.819362237000  103.378440147510  12.700000000000  1  # C
 87.285603727539  106.194643467384  12.700000000000  1  # C
 88.538932283604  105.502327886656  12.700000000000  1  # C
 86.005173774143  108.318531206530  12.700000000000  1  # C
 87.258502330209  107.626215625803  12.700000000000  1  # C
 84.724743820748  110.442418945677  12.700000000000  1  # C
 85.978072376813  109.750103364949  12.700000000000  1  # C
 83.444313867352  112.566306684823  12.700000000000  1  # C
 84.697642423418  111.873991104096  12.700000000000  1  # C
 82.163883913957  114.690194423970  12.700000000000  1  # C
 83.417212470022  113.997878843242  12.700000000000  1  # C
 80.883453960561  116.814082163116  12.700000000000  1  # C
 82.136782516627  116.121766582389  12.700000000000  1  # C
 79.603024007166  118.937969902262  12.700000000000  1  # C
 80.856352563232  118.245654321535  12.700000000000  1  # C
 78.322594053770  121.061857641409  12.700000000000  1  # C
 79.575922609836  120.369542060681  12.700000000000  1  # C
 77.042164100375  123.185745380555  12.700000000000  1  # C
 78.295492656441  122.493429799828  12.700000000000  1  # C
 75.761734146979  125.309633119702  12.700000000000  1  # C
 77.015062703045  124.617317538974  12.700000000000  1  # C
 74.481304193584  127.433520858848  12.700000000000  1  # C
 75.734632749650  126.741205278121  12.700000000000  1  # C
 73.200874240188  129.557408597995  12.700000000000  1  # C
 74.454202796254  128.865093017267  12.700000000000  1  # C
 71.920444286793  131.681296337141  12.700000000000  1  # C
 73.173772842859  130.988980756414  12.700000000000  1  # C
 70.640014333398  133.805184076288  12.700000000000  1  # C
 71.893342889463  133.112868495560  12.700000000000  1  # C
 69.359584380002  135.929071815434  12.700000000000  1  # C
 70.612912936068  135.236756234707  12.700000000000  1  # C
 68.079154426607  138.052959554581  12.700000000000  1  # C
 69.332482982672  137.360643973853  12.700000000000  1  # C
 66.798724473211  140.176847293727  12.700000000000  1  # C
 68.052053029277  139.484531713000  12.700000000000  1  # C
 65.518294519816  142.300735032873  12.700000000000  1  # C
 66.771623075881  141.608419452146  12.700000000000  1  # C
 64.237864566420  144.424622772020  12.700000000000  1  # C
 65.491193122486  143.732307191292  12.700000000000  1  # C
 62.957434613025  146.548510511166  12.700000000000  1  # C
 64.210763169090  145.856194930439  12.700000000000  1  # C
 61.677004659629  148.672398250313  12.700000000000  1  # C
 62.930333215695  147.980082669585  12.700000000000  1  # C
 60.396574706234  150.796285989459  12.700000000000  1  # C
 61.649903262299  150.103970408732  12.700000000000  1  # C
 59.116144752838  152.920173728606  12.700000000000  1  # C
 60.369473308904  152.227858147878  12.700000000000  1  # C
 57.835714799443  155.044061467752  12.700000000000  1  # C
 59.089043355508  154.351745887025  12.700000000000  1  # C
 56.555284846047  157.167949206899  12.700000000000  1  # C
 57.808613402113  156.475633626171  12.700000000000  1  # C
 55.274854892652  159.291836946045  12.700000000000  1  # C
 56.528183448717  158.599521365318  12.700000000000  1  # C
 53.994424939256  161.415724685192  12.700000000000  1  # C
 55.247753495322  160.723409104464  12.700000000000  1  # C
 53.967323541926  162.847296843610  12.700000000000  1  # C
 112.812898603455  68.011605159912  12.700000000000  1  # C
 111.532468650060  70.135492899058  12.700000000000  1  # C
 112.785797206125  69.443177318330  12.700000000000  1  # C
 110.252038696664  72.259380638204  12.700000000000  1  # C
 111.505367252730  71.567065057477  12.700000000000  1  # C
 108.971608743269  74.383268377351  12.700000000000  1  # C
 110.224937299334  73.690952796623  12.700000000000  1  # C
 107.691178789873  76.507156116497  12.700000000000  1  # C
 108.944507345939  75.814840535770  12.700000000000  1  # C
 106.410748836478  78.631043855644  12.700000000000  1  # C
 107.664077392543  77.938728274916  12.700000000000  1  # C
 105.130318883082  80.754931594790  12.700000000000  1  # C
 106.383647439148  80.062616014063  12.700000000000  1  # C
 103.849888929687  82.878819333937  12.700000000000  1  # C
 105.103217485752  82.186503753209  12.700000000000  1  # C
 102.569458976291  85.002707073083  12.700000000000  1  # C
 103.822787532357  84.310391492356  12.700000000000  1  # C
 101.289029022896  87.126594812230  12.700000000000  1  # C
 102.542357578961  86.434279231502  12.700000000000  1  # C
 100.008599069500  89.250482551376  12.700000000000  1  # C
 101.261927625566  88.558166970649  12.700000000000  1  # C
 98.728169116105  91.374370290523  12.700000000000  1  # C
 99.981497672170  90.682054709795  12.700000000000  1  # C
 97.447739162709  93.498258029669  12.700000000000  1  # C
 98.701067718775  92.805942448941  12.700000000000  1  # C
 96.167309209314  95.622145768815  12.700000000000  1  # C
 97.420637765379  94.929830188088  12.700000000000  1  # C
 94.886879255918  97.746033507962  12.700000000000  1  # C
 96.140207811984  97.053717927234  12.700000000000  1  # C
 93.606449302523  99.869921247108  12.700000000000  1  # C
 94.859777858588  99.177605666381  12.700000000000  1  # C
 92.326019349127  101.993808986255  12.700000000000  1  # C
 93.579347905193  101.301493405527  12.700000000000  1  # C
 91.045589395732  104.117696725401  12.700000000000  1  # C
 92.298917951797  103.425381144674  12.700000000000  1  # C
 89.765159442336  106.241584464548  12.700000000000  1  # C
 91.018487998402  105.549268883820  12.700000000000  1  # C
 88.484729488941  108.365472203694  12.700000000000  1  # C
 89.738058045007  107.673156622967  12.700000000000  1  # C
 87.204299535545  110.489359942841  12.700000000000  1  # C
 88.457628091611  109.797044362113  12.700000000000  1  # C
 85.923869582150  112.613247681987  12.700000000000  1  # C
 87.177198138216  111.920932101260  12.700000000000  1  # C
 84.643439628754  114.737135421133  12.700000000000  1  # C
 85.896768184820  114.044819840406  12.700000000000  1  # C
 83.363009675359  116.861023160280  12.700000000000  1  # C
 84.616338231425  116.168707579552  12.700000000000  1  # C
 82.082579721963  118.984910899426  12.700000000000  1  # C
 83.335908278029  118.292595318699  12.700000000000  1  # C
 80.802149768568  121.108798638573  12.700000000000  1  # C
 82.055478324634  120.416483057845  12.700000000000  1  # C
 79.521719815173  123.232686377719  12.700000000000  1  # C
 80.775048371238  122.540370796992  12.700000000000  1  # C
 78.241289861777  125.356574116866  12.700000000000  1  # C
 79.494618417843  124.664258536138  12.700000000000  1  # C
 76.960859908382  127.480461856012  12.700000000000  1  # C
 78.214188464447  126.788146275285  12.700000000000  1  # C
 75.680429954986  129.604349595159  12.700000000000  1  # C
 76.933758511052  128.912034014431  12.700000000000  1  # C
 74.400000001591  131.728237334305  12.700000000000  1  # C
 75.653328557656  131.035921753578  12.700000000000  1  # C
 73.119570048195  133.852125073452  12.700000000000  1  # C
 74.372898604261  133.159809492724  12.700000000000  1  # C
 71.839140094800  135.976012812598  12.700000000000  1  # C
 73.092468650865  135.283697231871  12.700000000000  1  # C
 70.558710141404  138.099900551744  12.700000000000  1  # C
 71.812038697470  137.407584971017  12.700000000000  1  # C
 69.278280188009  140.223788290891  12.700000000000  1  # C
 70.531608744074  139.531472710163  12.700000000000  1  # C
 67.997850234613  142.347676030037  12.700000000000  1  # C
 69.251178790679  141.655360449310  12.700000000000  1  # C
 66.717420281218  144.471563769184  12.700000000000  1  # C
 67.970748837283  143.779248188456  12.700000000000  1  # C
 65.436990327822  146.595451508330  12.700000000000  1  # C
 66.690318883888  145.903135927603  12.700000000000  1  # C
 64.156560374427  148.719339247477  12.700000000000  1  # C
 65.409888930492  148.027023666749  12.700000000000  1  # C
 62.876130421031  150.843226986623  12.700000000000  1  # C
 64.129458977097  150.150911405896  12.700000000000  1  # C
 61.595700467636  152.967114725770  12.700000000000  1  # C
 62.849029023701  152.274799145042  12.700000000000  1  # C
 60.315270514240  155.091002464916  12.700000000000  1  # C
 61.568599070306  154.398686884189  12.700000000000  1  # C
 59.034840560845  157.214890204063  12.700000000000  1  # C
 60.288169116910  156.522574623335  12.700000000000  1  # C
 57.754410607449  159.338777943209  12.700000000000  1  # C
 59.007739163515  158.646462362482  12.700000000000  1  # C
 56.473980654054  161.462665682355  12.700000000000  1  # C
 57.727309210119  160.770350101628  12.700000000000  1  # C
 55.193550700658  163.586553421502  12.700000000000  1  # C
 56.446879256724  162.894237840774  12.700000000000  1  # C
 112.731594411462  72.306321635368  12.700000000000  1  # C
 111.451164458066  74.430209374515  12.700000000000  1  # C
 112.704493014132  73.737893793787  12.700000000000  1  # C
 110.170734504671  76.554097113661  12.700000000000  1  # C
 111.424063060736  75.861781532934  12.700000000000  1  # C
 108.890304551275  78.677984852808  12.700000000000  1  # C
 110.143633107341  77.985669272080  12.700000000000  1  # C
 107.609874597880  80.801872591954  12.700000000000  1  # C
 108.863203153945  80.109557011227  12.700000000000  1  # C
 106.329444644484  82.925760331101  12.700000000000  1  # C
 107.582773200550  82.233444750373  12.700000000000  1  # C
 105.049014691089  85.049648070247  12.700000000000  1  # C
 106.302343247154  84.357332489520  12.700000000000  1  # C
 103.768584737693  87.173535809393  12.700000000000  1  # C
 105.021913293759  86.481220228666  12.700000000000  1  # C
 102.488154784298  89.297423548540  12.700000000000  1  # C
 103.741483340363  88.605107967812  12.700000000000  1  # C
 101.207724830902  91.421311287686  12.700000000000  1  # C
 102.461053386968  90.728995706959  12.700000000000  1  # C
 99.927294877507  93.545199026833  12.700000000000  1  # C
 101.180623433572  92.852883446105  12.700000000000  1  # C
 98.646864924111  95.669086765979  12.700000000000  1  # C
 99.900193480177  94.976771185252  12.700000000000  1  # C
 97.366434970716  97.792974505126  12.700000000000  1  # C
 98.619763526781  97.100658924398  12.700000000000  1  # C
 96.086005017320  99.916862244272  12.700000000000  1  # C
 97.339333573386  99.224546663545  12.700000000000  1  # C
 94.805575063925  102.040749983419  12.700000000000  1  # C
 96.058903619991  101.348434402691  12.700000000000  1  # C
 93.525145110529  104.164637722565  12.700000000000  1  # C
 94.778473666595  103.472322141838  12.700000000000  1  # C
 92.244715157134  106.288525461712  12.700000000000  1  # C
 93.498043713200  105.596209880984  12.700000000000  1  # C
 90.964285203738  108.412413200858  12.700000000000  1  # C
 92.217613759804  107.720097620131  12.700000000000  1  # C
 89.683855250343  110.536300940005  12.700000000000  1  # C
 90.937183806409  109.843985359277  12.700000000000  1  # C
 88.403425296947  112.660188679151  12.700000000000  1  # C
 89.656753853013  111.967873098423  12.700000000000  1  # C
 87.122995343552  114.784076418297  12.700000000000  1  # C
 88.376323899618  114.091760837570  12.700000000000  1  # C
 85.842565390157  116.907964157444  12.700000000000  1  # C
 87.095893946222  116.215648576716  12.700000000000  1  # C
 84.562135436761  119.031851896590  12.700000000000  1  # C
 85.815463992827  118.339536315863  12.700000000000  1  # C
 83.281705483366  121.155739635737  12.700000000000  1  # C
 84.535034039431  120.463424055009  12.700000000000  1  # C
 82.001275529970  123.279627374883  12.700000000000  1  # C
 83.254604086036  122.587311794156  12.700000000000  1  # C
 80.720845576575  125.403515114030  12.700000000000  1  # C
 81.974174132640  124.711199533302  12.700000000000  1  # C
 79.440415623179  127.527402853176  12.700000000000  1  # C
 80.693744179245  126.835087272449  12.700000000000  1  # C
 78.159985669784  129.651290592323  12.700000000000  1  # C
 79.413314225849  128.958975011595  12.700000000000  1  # C
 76.879555716388  131.775178331469  12.700000000000  1  # C
 78.132884272454  131.082862750742  12.700000000000  1  # C
 75.599125762993  133.899066070616  12.700000000000  1  # C
 76.852454319058  133.206750489888  12.700000000000  1  # C
 74.318695809597  136.022953809762  12.700000000000  1  # C
 75.572024365663  135.330638229034  12.700000000000  1  # C
 73.038265856202  138.146841548908  12.700000000000  1  # C
 74.291594412267  137.454525968181  12.700000000000  1  # C
 71.757835902806  140.270729288055  12.700000000000  1  # C
 73.011164458872  139.578413707327  12.700000000000  1  # C
 70.477405949411  142.394617027201  12.700000000000  1  # C
 71.730734505476  141.702301446474  12.700000000000  1  # C
 69.196975996015  144.518504766348  12.700000000000  1  # C
 70.450304552081  143.826189185620  12.700000000000  1  # C
 67.916546042620  146.642392505494  12.700000000000  1  # C
 69.169874598685  145.950076924767  12.700000000000  1  # C
 66.636116089224  148.766280244641  12.700000000000  1  # C
 67.889444645290  148.073964663913  12.700000000000  1  # C
 65.355686135829  150.890167983787  12.700000000000  1  # C
 66.609014691894  150.197852403060  12.700000000000  1  # C
 64.075256182433  153.014055722934  12.700000000000  1  # C
 65.328584738499  152.321740142206  12.700000000000  1  # C
 62.794826229038  155.137943462080  12.700000000000  1  # C
 64.048154785103  154.445627881353  12.700000000000  1  # C
 61.514396275642  157.261831201226  12.700000000000  1  # C
 62.767724831708  156.569515620499  12.700000000000  1  # C
 60.233966322247  159.385718940373  12.700000000000  1  # C
 61.487294878312  158.693403359645  12.700000000000  1  # C
 58.953536368851  161.509606679519  12.700000000000  1  # C
 60.206864924917  160.817291098792  12.700000000000  1  # C
 57.673106415456  163.633494418666  12.700000000000  1  # C
 58.926434971521  162.941178837938  12.700000000000  1  # C
 57.646005018126  165.065066577085  12.700000000000  1  # C
 112.650290219468  76.601038110825  12.700000000000  1  # C
 111.369860266073  78.724925849972  12.700000000000  1  # C
 112.623188822138  78.032610269244  12.700000000000  1  # C
 110.089430312677  80.848813589118  12.700000000000  1  # C
 111.342758868743  80.156498008391  12.700000000000  1  # C
 108.809000359282  82.972701328265  12.700000000000  1  # C
 110.062328915347  82.280385747537  12.700000000000  1  # C
 107.528570405886  85.096589067411  12.700000000000  1  # C
 108.781898961952  84.404273486683  12.700000000000  1  # C
 106.248140452491  87.220476806557  12.700000000000  1  # C
 107.501469008556  86.528161225830  12.700000000000  1  # C
 104.967710499095  89.344364545704  12.700000000000  1  # C
 106.221039055161  88.652048964976  12.700000000000  1  # C
 103.687280545700  91.468252284850  12.700000000000  1  # C
 104.940609101765  90.775936704123  12.700000000000  1  # C
 102.406850592304  93.592140023997  12.700000000000  1  # C
 103.660179148370  92.899824443269  12.700000000000  1  # C
 101.126420638909  95.716027763143  12.700000000000  1  # C
 102.379749194975  95.023712182416  12.700000000000  1  # C
 99.845990685513  97.839915502290  12.700000000000  1  # C
 101.099319241579  97.147599921562  12.700000000000  1  # C
 98.565560732118  99.963803241436  12.700000000000  1  # C
 99.818889288184  99.271487660709  12.700000000000  1  # C
 97.285130778723  102.087690980583  12.700000000000  1  # C
 98.538459334788  101.395375399855  12.700000000000  1  # C
 96.004700825327  104.211578719729  12.700000000000  1  # C
 97.258029381393  103.519263139002  12.700000000000  1  # C
 94.724270871932  106.335466458876  12.700000000000  1  # C
 95.977599427997  105.643150878148  12.700000000000  1  # C
 93.443840918536  108.459354198022  12.700000000000  1  # C
 94.697169474602  107.767038617294  12.700000000000  1  # C
 92.163410965141  110.583241937168  12.700000000000  1  # C
 93.416739521206  109.890926356441  12.700000000000  1  # C
 90.882981011745  112.707129676315  12.700000000000  1  # C
 92.136309567811  112.014814095587  12.700000000000  1  # C
 89.602551058350  114.831017415461  12.700000000000  1  # C
 90.855879614415  114.138701834734  12.700000000000  1  # C
 88.322121104954  116.954905154608  12.700000000000  1  # C
 89.575449661020  116.262589573880  12.700000000000  1  # C
 87.041691151559  119.078792893754  12.700000000000  1  # C
 88.295019707624  118.386477313027  12.700000000000  1  # C
 85.761261198163  121.202680632901  12.700000000000  1  # C
 87.014589754229  120.510365052173  12.700000000000  1  # C
 84.480831244768  123.326568372047  12.700000000000  1  # C
 85.734159800833  122.634252791320  12.700000000000  1  # C
 83.200401291372  125.450456111194  12.700000000000  1  # C
 84.453729847438  124.758140530466  12.700000000000  1  # C
 81.919971337977  127.574343850340  12.700000000000  1  # C
 83.173299894042  126.882028269613  12.700000000000  1  # C
 80.639541384581  129.698231589487  12.700000000000  1  # C
 81.892869940647  129.005916008759  12.700000000000  1  # C
 79.359111431186  131.822119328633  12.700000000000  1  # C
 80.612439987251  131.129803747905  12.700000000000  1  # C
 78.078681477790  133.946007067779  12.700000000000  1  # C
 79.332010033856  133.253691487052  12.700000000000  1  # C
 76.798251524395  136.069894806926  12.700000000000  1  # C
 78.051580080460  135.377579226198  12.700000000000  1  # C
 75.517821570999  138.193782546072  12.700000000000  1  # C
 76.771150127065  137.501466965345  12.700000000000  1  # C
 74.237391617604  140.317670285219  12.700000000000  1  # C
 75.490720173669  139.625354704491  12.700000000000  1  # C
 72.956961664208  142.441558024365  12.700000000000  1  # C
 74.210290220274  141.749242443638  12.700000000000  1  # C
 71.676531710813  144.565445763512  12.700000000000  1  # C
 72.929860266878  143.873130182784  12.700000000000  1  # C
 70.396101757417  146.689333502658  12.700000000000  1  # C
 71.649430313483  145.997017921931  12.700000000000  1  # C
 69.115671804022  148.813221241805  12.700000000000  1  # C
 70.369000360087  148.120905661077  12.700000000000  1  # C
 67.835241850626  150.937108980951  12.700000000000  1  # C
 69.088570406692  150.244793400224  12.700000000000  1  # C
 66.554811897231  153.060996720098  12.700000000000  1  # C
 67.808140453296  152.368681139370  12.700000000000  1  # C
 65.274381943835  155.184884459244  12.700000000000  1  # C
 66.527710499901  154.492568878516  12.700000000000  1  # C
 63.993951990440  157.308772198390  12.700000000000  1  # C
 65.247280546506  156.616456617663  12.700000000000  1  # C
 62.713522037044  159.432659937537  12.700000000000  1  # C
 63.966850593110  158.740344356809  12.700000000000  1  # C
 61.433092083649  161.556547676683  12.700000000000  1  # C
 62.686420639715  160.864232095956  12.700000000000  1  # C
 60.152662130253  163.680435415830  12.700000000000  1  # C
 61.405990686319  162.988119835102  12.700000000000  1  # C
 58.872232176858  165.804323154976  12.700000000000  1  # C
 60.125560732924  165.112007574249  12.700000000000  1  # C
 112.568986027475  80.895754586282  12.700000000000  1  # C
 111.288556074079  83.019642325428  12.700000000000  1  # C
 112.541884630145  82.327326744701  12.700000000000  1  # C
 110.008126120684  85.143530064575  12.700000000000  1  # C
 111.261454676750  84.451214483847  12.700000000000  1  # C
 108.727696167288  87.267417803721  12.700000000000  1  # C
 109.981024723354  86.575102222994  12.700000000000  1  # C
 107.447266213893  89.391305542868  12.700000000000  1  # C
 108.700594769959  88.698989962140  12.700000000000  1  # C
 106.166836260497  91.515193282014  12.700000000000  1  # C
 107.420164816563  90.822877701287  12.700000000000  1  # C
 104.886406307102  93.639081021161  12.700000000000  1  # C
 106.139734863168  92.946765440433  12.700000000000  1  # C
 103.605976353707  95.762968760307  12.700000000000  1  # C
 104.859304909772  95.070653179580  12.700000000000  1  # C
 102.325546400311  97.886856499454  12.700000000000  1  # C
 103.578874956377  97.194540918726  12.700000000000  1  # C
 101.045116446916  100.010744238600  12.700000000000  1  # C
 102.298445002981  99.318428657873  12.700000000000  1  # C
 99.764686493520  102.134631977747  12.700000000000  1  # C
 101.018015049586  101.442316397019  12.700000000000  1  # C
 98.484256540125  104.258519716893  12.700000000000  1  # C
 99.737585096190  103.566204136165  12.700000000000  1  # C
 97.203826586729  106.382407456039  12.700000000000  1  # C
 98.457155142795  105.690091875312  12.700000000000  1  # C
 95.923396633334  108.506295195186  12.700000000000  1  # C
 97.176725189399  107.813979614458  12.700000000000  1  # C
 94.642966679938  110.630182934332  12.700000000000  1  # C
 95.896295236004  109.937867353605  12.700000000000  1  # C
 93.362536726543  112.754070673479  12.700000000000  1  # C
 94.615865282608  112.061755092751  12.700000000000  1  # C
 92.082106773147  114.877958412625  12.700000000000  1  # C
 93.335435329213  114.185642831898  12.700000000000  1  # C
 90.801676819752  117.001846151772  12.700000000000  1  # C
 92.055005375817  116.309530571044  12.700000000000  1  # C
 89.521246866356  119.125733890918  12.700000000000  1  # C
 90.774575422422  118.433418310191  12.700000000000  1  # C
 88.240816912961  121.249621630065  12.700000000000  1  # C
 89.494145469026  120.557306049337  12.700000000000  1  # C
 86.960386959565  123.373509369211  12.700000000000  1  # C
 88.213715515631  122.681193788484  12.700000000000  1  # C
 85.679957006170  125.497397108358  12.700000000000  1  # C
 86.933285562235  124.805081527630  12.700000000000  1  # C
 84.399527052774  127.621284847504  12.700000000000  1  # C
 85.652855608840  126.928969266776  12.700000000000  1  # C
 83.119097099379  129.745172586650  12.700000000000  1  # C
 84.372425655444  129.052857005923  12.700000000000  1  # C
 81.838667145983  131.869060325797  12.700000000000  1  # C
 83.091995702049  131.176744745069  12.700000000000  1  # C
 80.558237192588  133.992948064943  12.700000000000  1  # C
 81.811565748653  133.300632484216  12.700000000000  1  # C
 79.277807239192  136.116835804090  12.700000000000  1  # C
 80.531135795258  135.424520223362  12.700000000000  1  # C
 77.997377285797  138.240723543236  12.700000000000  1  # C
 79.250705841862  137.548407962509  12.700000000000  1  # C
 76.716947332401  140.364611282383  12.700000000000  1  # C
 77.970275888467  139.672295701655  12.700000000000  1  # C
 75.436517379006  142.488499021529  12.700000000000  1  # C
 76.689845935071  141.796183440802  12.700000000000  1  # C
 74.156087425610  144.612386760676  12.700000000000  1  # C
 75.409415981676  143.920071179948  12.700000000000  1  # C
 72.875657472215  146.736274499822  12.700000000000  1  # C
 74.128986028280  146.043958919095  12.700000000000  1  # C
 71.595227518819  148.860162238969  12.700000000000  1  # C
 72.848556074885  148.167846658241  12.700000000000  1  # C
 70.314797565424  150.984049978115  12.700000000000  1  # C
 71.568126121489  150.291734397388  12.700000000000  1  # C
 69.034367612028  153.107937717261  12.700000000000  1  # C
 70.287696168094  152.415622136534  12.700000000000  1  # C
 67.753937658633  155.231825456408  12.700000000000  1  # C
 69.007266214699  154.539509875680  12.700000000000  1  # C
 66.473507705237  157.355713195554  12.700000000000  1  # C
 67.726836261303  156.663397614827  12.700000000000  1  # C
 65.193077751842  159.479600934701  12.700000000000  1  # C
 66.446406307908  158.787285353973  12.700000000000  1  # C
 63.912647798446  161.603488673847  12.700000000000  1  # C
 65.165976354512  160.911173093120  12.700000000000  1  # C
 62.632217845051  163.727376412994  12.700000000000  1  # C
 63.885546401117  163.035060832266  12.700000000000  1  # C
 61.351787891656  165.851264152140  12.700000000000  1  # C
 62.605116447721  165.158948571413  12.700000000000  1  # C
 61.324686494326  167.282836310559  12.700000000000  1  # C
 112.487681835481  85.190471061739  12.700000000000  1  # C
 111.207251882086  87.314358800885  12.700000000000  1  # C
 112.460580438152  86.622043220158  12.700000000000  1  # C
 109.926821928691  89.438246540032  12.700000000000  1  # C
 111.180150484756  88.745930959304  12.700000000000  1  # C
 108.646391975295  91.562134279178  12.700000000000  1  # C
 109.899720531361  90.869818698451  12.700000000000  1  # C
 107.365962021900  93.686022018325  12.700000000000  1  # C
 108.619290577965  92.993706437597  12.700000000000  1  # C
 106.085532068504  95.809909757471  12.700000000000  1  # C
 107.338860624570  95.117594176744  12.700000000000  1  # C
 104.805102115109  97.933797496618  12.700000000000  1  # C
 106.058430671174  97.241481915890  12.700000000000  1  # C
 103.524672161713  100.057685235764  12.700000000000  1  # C
 104.778000717779  99.365369655036  12.700000000000  1  # C
 102.244242208318  102.181572974910  12.700000000000  1  # C
 103.497570764383  101.489257394183  12.700000000000  1  # C
 100.963812254922  104.305460714057  12.700000000000  1  # C
 102.217140810988  103.613145133329  12.700000000000  1  # C
 99.683382301527  106.429348453203  12.700000000000  1  # C
 100.936710857592  105.737032872476  12.700000000000  1  # C
 98.402952348131  108.553236192350  12.700000000000  1  # C
 99.656280904197  107.860920611622  12.700000000000  1  # C
 97.122522394736  110.677123931496  12.700000000000  1  # C
 98.375850950801  109.984808350769  12.700000000000  1  # C
 95.842092441340  112.801011670643  12.700000000000  1  # C
 97.095420997406  112.108696089915  12.700000000000  1  # C
 94.561662487945  114.924899409789  12.700000000000  1  # C
 95.814991044010  114.232583829062  12.700000000000  1  # C
 93.281232534549  117.048787148936  12.700000000000  1  # C
 94.534561090615  116.356471568208  12.700000000000  1  # C
 92.000802581154  119.172674888082  12.700000000000  1  # C
 93.254131137219  118.480359307355  12.700000000000  1  # C
 90.720372627758  121.296562627229  12.700000000000  1  # C
 91.973701183824  120.604247046501  12.700000000000  1  # C
 89.439942674363  123.420450366375  12.700000000000  1  # C
 90.693271230428  122.728134785647  12.700000000000  1  # C
 88.159512720967  125.544338105521  12.700000000000  1  # C
 89.412841277033  124.852022524794  12.700000000000  1  # C
 86.879082767572  127.668225844668  12.700000000000  1  # C
 88.132411323637  126.975910263940  12.700000000000  1  # C
 85.598652814176  129.792113583814  12.700000000000  1  # C
 86.851981370242  129.099798003087  12.700000000000  1  # C
 84.318222860781  131.916001322961  12.700000000000  1  # C
 85.571551416846  131.223685742233  12.700000000000  1  # C
 83.037792907385  134.039889062107  12.700000000000  1  # C
 84.291121463451  133.347573481380  12.700000000000  1  # C
 81.757362953990  136.163776801254  12.700000000000  1  # C
 83.010691510055  135.471461220526  12.700000000000  1  # C
 80.476933000594  138.287664540400  12.700000000000  1  # C
 81.730261556660  137.595348959673  12.700000000000  1  # C
 79.196503047199  140.411552279547  12.700000000000  1  # C
 80.449831603264  139.719236698819  12.700000000000  1  # C
 77.916073093803  142.535440018693  12.700000000000  1  # C
 79.169401649869  141.843124437966  12.700000000000  1  # C
 76.635643140408  144.659327757840  12.700000000000  1  # C
 77.888971696474  143.967012177112  12.700000000000  1  # C
 75.355213187012  146.783215496986  12.700000000000  1  # C
 76.608541743078  146.090899916258  12.700000000000  1  # C
 74.074783233617  148.907103236132  12.700000000000  1  # C
 75.328111789683  148.214787655405  12.700000000000  1  # C
 72.794353280221  151.030990975279  12.700000000000  1  # C
 74.047681836287  150.338675394551  12.700000000000  1  # C
 71.513923326826  153.154878714425  12.700000000000  1  # C
 72.767251882892  152.462563133698  12.700000000000  1  # C
 70.233493373430  155.278766453572  12.700000000000  1  # C
 71.486821929496  154.586450872844  12.700000000000  1  # C
 68.953063420035  157.402654192718  12.700000000000  1  # C
 70.206391976101  156.710338611991  12.700000000000  1  # C
 67.672633466640  159.526541931865  12.700000000000  1  # C
 68.925962022705  158.834226351137  12.700000000000  1  # C
 66.392203513244  161.650429671011  12.700000000000  1  # C
 67.645532069310  160.958114090284  12.700000000000  1  # C
 65.111773559849  163.774317410158  12.700000000000  1  # C
 66.365102115914  163.082001829430  12.700000000000  1  # C
 63.831343606453  165.898205149304  12.700000000000  1  # C
 65.084672162519  165.205889568577  12.700000000000  1  # C
 62.550913653058  168.022092888451  12.700000000000  1  # C
 63.804242209123  167.329777307723  12.700000000000  1  # C
 112.406377643488  89.485187537196  12.700000000000  1  # C
 111.125947690093  91.609075276342  12.700000000000  1  # C
 112.379276246158  90.916759695615  12.700000000000  1  # C
 109.845517736697  93.732963015489  12.700000000000  1  # C
 111.098846292763  93.040647434761  12.700000000000  1  # C
 108.565087783302  95.856850754635  12.700000000000  1  # C
 109.818416339367  95.164535173908  12.700000000000  1  # C
 107.284657829906  97.980738493781  12.700000000000  1  # C
 108.537986385972  97.288422913054  12.700000000000  1  # C
 106.004227876511  100.104626232928  12.700000000000  1  # C
 107.257556432576  99.412310652200  12.700000000000  1  # C
 104.723797923115  102.228513972074  12.700000000000  1  # C
 105.977126479181  101.536198391347  12.700000000000  1  # C
 103.443367969720  104.352401711221  12.700000000000  1  # C
 104.696696525785  103.660086130493  12.700000000000  1  # C
 102.162938016324  106.476289450367  12.700000000000  1  # C
 103.416266572390  105.783973869640  12.700000000000  1  # C
 100.882508062929  108.600177189514  12.700000000000  1  # C
 102.135836618994  107.907861608786  12.700000000000  1  # C
 99.602078109533  110.724064928660  12.700000000000  1  # C
 100.855406665599  110.031749347933  12.700000000000  1  # C
 98.321648156138  112.847952667807  12.700000000000  1  # C
 99.574976712203  112.155637087079  12.700000000000  1  # C
 97.041218202742  114.971840406953  12.700000000000  1  # C
 98.294546758808  114.279524826226  12.700000000000  1  # C
 95.760788249347  117.095728146100  12.700000000000  1  # C
 97.014116805412  116.403412565372  12.700000000000  1  # C
 94.480358295951  119.219615885246  12.700000000000  1  # C
 95.733686852017  118.527300304519  12.700000000000  1  # C
 93.199928342556  121.343503624392  12.700000000000  1  # C
 94.453256898621  120.651188043665  12.700000000000  1  # C
 91.919498389160  123.467391363539  12.700000000000  1  # C
 93.172826945226  122.775075782811  12.700000000000  1  # C
 90.639068435765  125.591279102685  12.700000000000  1  # C
 91.892396991830  124.898963521958  12.700000000000  1  # C
 89.358638482369  127.715166841832  12.700000000000  1  # C
 90.611967038435  127.022851261104  12.700000000000  1  # C
 88.078208528974  129.839054580978  12.700000000000  1  # C
 89.331537085039  129.146739000251  12.700000000000  1  # C
 86.797778575578  131.962942320125  12.700000000000  1  # C
 88.051107131644  131.270626739397  12.700000000000  1  # C
 85.517348622183  134.086830059271  12.700000000000  1  # C
 86.770677178249  133.394514478544  12.700000000000  1  # C
 84.236918668787  136.210717798418  12.700000000000  1  # C
 85.490247224853  135.518402217690  12.700000000000  1  # C
 82.956488715392  138.334605537564  12.700000000000  1  # C
 84.209817271458  137.642289956837  12.700000000000  1  # C
 81.676058761996  140.458493276711  12.700000000000  1  # C
 82.929387318062  139.766177695983  12.700000000000  1  # C
 80.395628808601  142.582381015857  12.700000000000  1  # C
 81.648957364667  141.890065435129  12.700000000000  1  # C
 79.115198855205  144.706268755003  12.700000000000  1  # C
 80.368527411271  144.013953174276  12.700000000000  1  # C
 77.834768901810  146.830156494150  12.700000000000  1  # C
 79.088097457876  146.137840913422  12.700000000000  1  # C
 76.554338948415  148.954044233296  12.700000000000  1  # C
 77.807667504480  148.261728652569  12.700000000000  1  # C
 75.273908995019  151.077931972443  12.700000000000  1  # C
 76.527237551085  150.385616391715  12.700000000000  1  # C
 73.993479041624  153.201819711589  12.700000000000  1  # C
 75.246807597689  152.509504130862  12.700000000000  1  # C
 72.713049088228  155.325707450736  12.700000000000  1  # C
 73.966377644294  154.633391870008  12.700000000000  1  # C
 71.432619134833  157.449595189882  12.700000000000  1  # C
 72.685947690898  156.757279609155  12.700000000000  1  # C
 70.152189181437  159.573482929029  12.700000000000  1  # C
 71.405517737503  158.881167348301  12.700000000000  1  # C
 68.871759228042  161.697370668175  12.700000000000  1  # C
 70.125087784107  161.005055087448  12.700000000000  1  # C
 67.591329274646  163.821258407322  12.700000000000  1  # C
 68.844657830712  163.128942826594  12.700000000000  1  # C
 66.310899321251  165.945146146468  12.700000000000  1  # C
 67.564227877316  165.252830565740  12.700000000000  1  # C
 65.030469367855  168.069033885614  12.700000000000  1  # C
 66.283797923921  167.376718304887  12.700000000000  1  # C
 65.003367970525  169.500606044033  12.700000000000  1  # C
 112.325073451495  93.779904012652  12.700000000000  1  # C
 111.044643498099  95.903791751799  12.700000000000  1  # C
 112.297972054165  95.211476171071  12.700000000000  1  # C
 109.764213544704  98.027679490945  12.700000000000  1  # C
 111.017542100769  97.335363910218  12.700000000000  1  # C
 108.483783591308  100.151567230092  12.700000000000  1  # C
 109.737112147374  99.459251649364  12.700000000000  1  # C
 107.203353637913  102.275454969238  12.700000000000  1  # C
 108.456682193978  101.583139388511  12.700000000000  1  # C
 105.922923684517  104.399342708385  12.700000000000  1  # C
 107.176252240583  103.707027127657  12.700000000000  1  # C
 104.642493731122  106.523230447531  12.700000000000  1  # C
 105.895822287187  105.830914866804  12.700000000000  1  # C
 103.362063777726  108.647118186678  12.700000000000  1  # C
 104.615392333792  107.954802605950  12.700000000000  1  # C
 102.081633824331  110.771005925824  12.700000000000  1  # C
 103.334962380396  110.078690345097  12.700000000000  1  # C
 100.801203870935  112.894893664971  12.700000000000  1  # C
 102.054532427001  112.202578084243  12.700000000000  1  # C
 99.520773917540  115.018781404117  12.700000000000  1  # C
 100.774102473605  114.326465823390  12.700000000000  1  # C
 98.240343964144  117.142669143263  12.700000000000  1  # C
 99.493672520210  116.450353562536  12.700000000000  1  # C
 96.959914010749  119.266556882410  12.700000000000  1  # C
 98.213242566814  118.574241301682  12.700000000000  1  # C
 95.679484057353  121.390444621556  12.700000000000  1  # C
 96.932812613419  120.698129040829  12.700000000000  1  # C
 94.399054103958  123.514332360703  12.700000000000  1  # C
 95.652382660023  122.822016779975  12.700000000000  1  # C
 93.118624150562  125.638220099849  12.700000000000  1  # C
 94.371952706628  124.945904519122  12.700000000000  1  # C
 91.838194197167  127.762107838996  12.700000000000  1  # C
 93.091522753233  127.069792258268  12.700000000000  1  # C
 90.557764243771  129.885995578142  12.700000000000  1  # C
 91.811092799837  129.193679997415  12.700000000000  1  # C
 89.277334290376  132.009883317289  12.700000000000  1  # C
 90.530662846442  131.317567736561  12.700000000000  1  # C
 87.996904336980  134.133771056435  12.700000000000  1  # C
 89.250232893046  133.441455475708  12.700000000000  1  # C
 86.716474383585  136.257658795582  12.700000000000  1  # C
 87.969802939651  135.565343214854  12.700000000000  1  # C
 85.436044430189  138.381546534728  12.700000000000  1  # C
 86.689372986255  137.689230954000  12.700000000000  1  # C
 84.155614476794  140.505434273874  12.700000000000  1  # C
 85.408943032860  139.813118693147  12.700000000000  1  # C
 82.875184523399  142.629322013021  12.700000000000  1  # C
 84.128513079464  141.937006432293  12.700000000000  1  # C
 81.594754570003  144.753209752167  12.700000000000  1  # C
 82.848083126069  144.060894171440  12.700000000000  1  # C
 80.314324616608  146.877097491314  12.700000000000  1  # C
 81.567653172673  146.184781910586  12.700000000000  1  # C
 79.033894663212  149.000985230460  12.700000000000  1  # C
 80.287223219278  148.308669649733  12.700000000000  1  # C
 77.753464709817  151.124872969607  12.700000000000  1  # C
 79.006793265882  150.432557388879  12.700000000000  1  # C
 76.473034756421  153.248760708753  12.700000000000  1  # C
 77.726363312487  152.556445128026  12.700000000000  1  # C
 75.192604803026  155.372648447900  12.700000000000  1  # C
 76.445933359091  154.680332867172  12.700000000000  1  # C
 73.912174849630  157.496536187046  12.700000000000  1  # C
 75.165503405696  156.804220606319  12.700000000000  1  # C
 72.631744896235  159.620423926193  12.700000000000  1  # C
 73.885073452300  158.928108345465  12.700000000000  1  # C
 71.351314942839  161.744311665339  12.700000000000  1  # C
 72.604643498905  161.051996084611  12.700000000000  1  # C
 70.070884989444  163.868199404485  12.700000000000  1  # C
 71.324213545509  163.175883823758  12.700000000000  1  # C
 68.790455036048  165.992087143632  12.700000000000  1  # C
 70.043783592114  165.299771562904  12.700000000000  1  # C
 67.510025082653  168.115974882778  12.700000000000  1  # C
 68.763353638718  167.423659302051  12.700000000000  1  # C
 66.229595129257  170.239862621925  12.700000000000  1  # C
 67.482923685323  169.547547041197  12.700000000000  1  # C
 112.243769259501  98.074620488109  12.700000000000  1  # C
 110.963339306106  100.198508227256  12.700000000000  1  # C
 112.216667862171  99.506192646528  12.700000000000  1  # C
 109.682909352710  102.322395966402  12.700000000000  1  # C
 110.936237908776  101.630080385675  12.700000000000  1  # C
 108.402479399315  104.446283705549  12.700000000000  1  # C
 109.655807955380  103.753968124821  12.700000000000  1  # C
 107.122049445919  106.570171444695  12.700000000000  1  # C
 108.375378001985  105.877855863968  12.700000000000  1  # C
 105.841619492524  108.694059183842  12.700000000000  1  # C
 107.094948048589  108.001743603114  12.700000000000  1  # C
 104.561189539128  110.817946922988  12.700000000000  1  # C
 105.814518095194  110.125631342261  12.700000000000  1  # C
 103.280759585733  112.941834662134  12.700000000000  1  # C
 104.534088141798  112.249519081407  12.700000000000  1  # C
 102.000329632337  115.065722401281  12.700000000000  1  # C
 103.253658188403  114.373406820553  12.700000000000  1  # C
 100.719899678942  117.189610140427  12.700000000000  1  # C
 101.973228235007  116.497294559700  12.700000000000  1  # C
 99.439469725546  119.313497879574  12.700000000000  1  # C
 100.692798281612  118.621182298846  12.700000000000  1  # C
 98.159039772151  121.437385618720  12.700000000000  1  # C
 99.412368328217  120.745070037993  12.700000000000  1  # C
 96.878609818755  123.561273357867  12.700000000000  1  # C
 98.131938374821  122.868957777139  12.700000000000  1  # C
 95.598179865360  125.685161097013  12.700000000000  1  # C
 96.851508421426  124.992845516286  12.700000000000  1  # C
 94.317749911964  127.809048836160  12.700000000000  1  # C
 95.571078468030  127.116733255432  12.700000000000  1  # C
 93.037319958569  129.932936575306  12.700000000000  1  # C
 94.290648514635  129.240620994579  12.700000000000  1  # C
 91.756890005174  132.056824314453  12.700000000000  1  # C
 93.010218561239  131.364508733725  12.700000000000  1  # C
 90.476460051778  134.180712053599  12.700000000000  1  # C
 91.729788607844  133.488396472872  12.700000000000  1  # C
 89.196030098383  136.304599792745  12.700000000000  1  # C
 90.449358654448  135.612284212018  12.700000000000  1  # C
 87.915600144987  138.428487531892  12.700000000000  1  # C
 89.168928701053  137.736171951164  12.700000000000  1  # C
 86.635170191592  140.552375271038  12.700000000000  1  # C
 87.888498747657  139.860059690311  12.700000000000  1  # C
 85.354740238196  142.676263010185  12.700000000000  1  # C
 86.608068794262  141.983947429457  12.700000000000  1  # C
 84.074310284801  144.800150749331  12.700000000000  1  # C
 85.327638840866  144.107835168604  12.700000000000  1  # C
 82.793880331405  146.924038488478  12.700000000000  1  # C
 84.047208887471  146.231722907750  12.700000000000  1  # C
 81.513450378010  149.047926227624  12.700000000000  1  # C
 82.766778934075  148.355610646897  12.700000000000  1  # C
 80.233020424614  151.171813966771  12.700000000000  1  # C
 81.486348980680  150.479498386043  12.700000000000  1  # C
 78.952590471219  153.295701705917  12.700000000000  1  # C
 80.205919027284  152.603386125190  12.700000000000  1  # C
 77.672160517823  155.419589445064  12.700000000000  1  # C
 78.925489073889  154.727273864336  12.700000000000  1  # C
 76.391730564428  157.543477184210  12.700000000000  1  # C
 77.645059120493  156.851161603483  12.700000000000  1  # C
 75.111300611032  159.667364923356  12.700000000000  1  # C
 76.364629167098  158.975049342629  12.700000000000  1  # C
 73.830870657637  161.791252662503  12.700000000000  1  # C
 75.084199213702  161.098937081775  12.700000000000  1  # C
 72.550440704241  163.915140401649  12.700000000000  1  # C
 73.803769260307  163.222824820922  12.700000000000  1  # C
 71.270010750846  166.039028140796  12.700000000000  1  # C
 72.523339306911  165.346712560068  12.700000000000  1  # C
 69.989580797450  168.162915879942  12.700000000000  1  # C
 71.242909353516  167.470600299215  12.700000000000  1  # C
 68.709150844055  170.286803619089  12.700000000000  1  # C
 69.962479400120  169.594488038361  12.700000000000  1  # C
 68.682049446725  171.718375777508  12.700000000000  1  # C
 112.162465067508  102.369336963566  12.700000000000  1  # C
 110.882035114112  104.493224702713  12.700000000000  1  # C
 112.135363670178  103.800909121985  12.700000000000  1  # C
 109.601605160717  106.617112441859  12.700000000000  1  # C
 110.854933716783  105.924796861132  12.700000000000  1  # C
 108.321175207321  108.741000181005  12.700000000000  1  # C
 109.574503763387  108.048684600278  12.700000000000  1  # C
 107.040745253926  110.864887920152  12.700000000000  1  # C
 108.294073809992  110.172572339424  12.700000000000  1  # C
 105.760315300530  112.988775659298  12.700000000000  1  # C
 107.013643856596  112.296460078571  12.700000000000  1  # C
 104.479885347135  115.112663398445  12.700000000000  1  # C
 105.733213903201  114.420347817717  12.700000000000  1  # C
 103.199455393739  117.236551137591  12.700000000000  1  # C
 104.452783949805  116.544235556864  12.700000000000  1  # C
 101.919025440344  119.360438876738  12.700000000000  1  # C
 103.172353996410  118.668123296010  12.700000000000  1  # C
 100.638595486949  121.484326615884  12.700000000000  1  # C
 101.891924043014  120.792011035157  12.700000000000  1  # C
 99.358165533553  123.608214355031  12.700000000000  1  # C
 100.611494089619  122.915898774303  12.700000000000  1  # C
 98.077735580158  125.732102094177  12.700000000000  1  # C
 99.331064136223  125.039786513450  12.700000000000  1  # C
 96.797305626762  127.855989833324  12.700000000000  1  # C
 98.050634182828  127.163674252596  12.700000000000  1  # C
 95.516875673367  129.979877572470  12.700000000000  1  # C
 96.770204229432  129.287561991743  12.700000000000  1  # C
 94.236445719971  132.103765311617  12.700000000000  1  # C
 95.489774276037  131.411449730889  12.700000000000  1  # C
 92.956015766576  134.227653050763  12.700000000000  1  # C
 94.209344322641  133.535337470035  12.700000000000  1  # C
 91.675585813180  136.351540789909  12.700000000000  1  # C
 92.928914369246  135.659225209182  12.700000000000  1  # C
 90.395155859785  138.475428529056  12.700000000000  1  # C
 91.648484415850  137.783112948328  12.700000000000  1  # C
 89.114725906389  140.599316268202  12.700000000000  1  # C
 90.368054462455  139.907000687475  12.700000000000  1  # C
 87.834295952994  142.723204007349  12.700000000000  1  # C
 89.087624509059  142.030888426621  12.700000000000  1  # C
 86.553865999598  144.847091746495  12.700000000000  1  # C
 87.807194555664  144.154776165768  12.700000000000  1  # C
 85.273436046203  146.970979485642  12.700000000000  1  # C
 86.526764602268  146.278663904914  12.700000000000  1  # C
 83.993006092807  149.094867224788  12.700000000000  1  # C
 85.246334648873  148.402551644061  12.700000000000  1  # C
 82.712576139412  151.218754963935  12.700000000000  1  # C
 83.965904695477  150.526439383207  12.700000000000  1  # C
 81.432146186016  153.342642703081  12.700000000000  1  # C
 82.685474742082  152.650327122354  12.700000000000  1  # C
 80.151716232621  155.466530442227  12.700000000000  1  # C
 81.405044788686  154.774214861500  12.700000000000  1  # C
 78.871286279225  157.590418181374  12.700000000000  1  # C
 80.124614835291  156.898102600646  12.700000000000  1  # C
 77.590856325830  159.714305920520  12.700000000000  1  # C
 78.844184881895  159.021990339793  12.700000000000  1  # C
 76.310426372434  161.838193659667  12.700000000000  1  # C
 77.563754928500  161.145878078939  12.700000000000  1  # C
 75.029996419039  163.962081398813  12.700000000000  1  # C
 76.283324975104  163.269765818086  12.700000000000  1  # C
 73.749566465643  166.085969137960  12.700000000000  1  # C
 75.002895021709  165.393653557232  12.700000000000  1  # C
 72.469136512248  168.209856877106  12.700000000000  1  # C
 73.722465068313  167.517541296379  12.700000000000  1  # C
 71.188706558852  170.333744616253  12.700000000000  1  # C
 72.442035114918  169.641429035525  12.700000000000  1  # C
 69.908276605457  172.457632355399  12.700000000000  1  # C
 71.161605161523  171.765316774672  12.700000000000  1  # C
 112.081160875514  106.664053439023  12.700000000000  1  # C
 110.800730922119  108.787941178169  12.700000000000  1  # C
 112.054059478185  108.095625597442  12.700000000000  1  # C
 109.520300968724  110.911828917316  12.700000000000  1  # C
 110.773629524789  110.219513336588  12.700000000000  1  # C
 108.239871015328  113.035716656462  12.700000000000  1  # C
 109.493199571394  112.343401075735  12.700000000000  1  # C
 106.959441061933  115.159604395609  12.700000000000  1  # C
 108.212769617998  114.467288814881  12.700000000000  1  # C
 105.679011108537  117.283492134755  12.700000000000  1  # C
 106.932339664603  116.591176554028  12.700000000000  1  # C
 104.398581155142  119.407379873902  12.700000000000  1  # C
 105.651909711207  118.715064293174  12.700000000000  1  # C
 103.118151201746  121.531267613048  12.700000000000  1  # C
 104.371479757812  120.838952032321  12.700000000000  1  # C
 101.837721248351  123.655155352195  12.700000000000  1  # C
 103.091049804416  122.962839771467  12.700000000000  1  # C
 100.557291294955  125.779043091341  12.700000000000  1  # C
 101.810619851021  125.086727510614  12.700000000000  1  # C
 99.276861341560  127.902930830487  12.700000000000  1  # C
 100.530189897625  127.210615249760  12.700000000000  1  # C
 97.996431388164  130.026818569634  12.700000000000  1  # C
 99.249759944230  129.334502988906  12.700000000000  1  # C
 96.716001434769  132.150706308780  12.700000000000  1  # C
 97.969329990834  131.458390728053  12.700000000000  1  # C
 95.435571481373  134.274594047927  12.700000000000  1  # C
 96.688900037439  133.582278467199  12.700000000000  1  # C
 94.155141527978  136.398481787073  12.700000000000  1  # C
 95.408470084043  135.706166206346  12.700000000000  1  # C
 92.874711574582  138.522369526220  12.700000000000  1  # C
 94.128040130648  137.830053945492  12.700000000000  1  # C
 91.594281621187  140.646257265366  12.700000000000  1  # C
 92.847610177252  139.953941684639  12.700000000000  1  # C
 90.313851667791  142.770145004513  12.700000000000  1  # C
 91.567180223857  142.077829423785  12.700000000000  1  # C
 89.033421714396  144.894032743659  12.700000000000  1  # C
 90.286750270461  144.201717162932  12.700000000000  1  # C
 87.752991761000  147.017920482806  12.700000000000  1  # C
 89.006320317066  146.325604902078  12.700000000000  1  # C
 86.472561807605  149.141808221952  12.700000000000  1  # C
 87.725890363670  148.449492641225  12.700000000000  1  # C
 85.192131854209  151.265695961098  12.700000000000  1  # C
 86.445460410275  150.573380380371  12.700000000000  1  # C
 83.911701900814  153.389583700245  12.700000000000  1  # C
 85.165030456879  152.697268119517  12.700000000000  1  # C
 82.631271947418  155.513471439391  12.700000000000  1  # C
 83.884600503484  154.821155858664  12.700000000000  1  # C
 81.350841994023  157.637359178538  12.700000000000  1  # C
 82.604170550088  156.945043597810  12.700000000000  1  # C
 80.070412040627  159.761246917684  12.700000000000  1  # C
 81.323740596693  159.068931336957  12.700000000000  1  # C
 78.789982087232  161.885134656831  12.700000000000  1  # C
 80.043310643297  161.192819076103  12.700000000000  1  # C
 77.509552133836  164.009022395977  12.700000000000  1  # C
 78.762880689902  163.316706815250  12.700000000000  1  # C
 76.229122180441  166.132910135124  12.700000000000  1  # C
 77.482450736507  165.440594554396  12.700000000000  1  # C
 74.948692227045  168.256797874270  12.700000000000  1  # C
 76.202020783111  167.564482293543  12.700000000000  1  # C
 73.668262273650  170.380685613417  12.700000000000  1  # C
 74.921590829716  169.688370032689  12.700000000000  1  # C
 72.387832320254  172.504573352563  12.700000000000  1  # C
 73.641160876320  171.812257771836  12.700000000000  1  # C
 72.360730922925  173.936145510982  12.700000000000  1  # C
 111.999856683521  110.958769914480  12.700000000000  1  # C
 110.719426730126  113.082657653626  12.700000000000  1  # C
 111.972755286191  112.390342072899  12.700000000000  1  # C
 109.438996776730  115.206545392773  12.700000000000  1  # C
 110.692325332796  114.514229812045  12.700000000000  1  # C
 108.158566823335  117.330433131919  12.700000000000  1  # C
 109.411895379400  116.638117551192  12.700000000000  1  # C
 106.878136869939  119.454320871066  12.700000000000  1  # C
 108.131465426005  118.762005290338  12.700000000000  1  # C
 105.597706916544  121.578208610212  12.700000000000  1  # C
 106.851035472609  120.885893029485  12.700000000000  1  # C
 104.317276963148  123.702096349358  12.700000000000  1  # C
 105.570605519214  123.009780768631  12.700000000000  1  # C
 103.036847009753  125.825984088505  12.700000000000  1  # C
 104.290175565818  125.133668507777  12.700000000000  1  # C
 101.756417056357  127.949871827651  12.700000000000  1  # C
 103.009745612423  127.257556246924  12.700000000000  1  # C
 100.475987102962  130.073759566798  12.700000000000  1  # C
 101.729315659027  129.381443986070  12.700000000000  1  # C
 99.195557149566  132.197647305944  12.700000000000  1  # C
 100.448885705632  131.505331725217  12.700000000000  1  # C
 97.915127196171  134.321535045091  12.700000000000  1  # C
 99.168455752236  133.629219464363  12.700000000000  1  # C
 96.634697242775  136.445422784237  12.700000000000  1  # C
 97.888025798841  135.753107203510  12.700000000000  1  # C
 95.354267289380  138.569310523384  12.700000000000  1  # C
 96.607595845445  137.876994942656  12.700000000000  1  # C
 94.073837335984  140.693198262530  12.700000000000  1  # C
 95.327165892050  140.000882681803  12.700000000000  1  # C
 92.793407382589  142.817086001677  12.700000000000  1  # C
 94.046735938654  142.124770420949  12.700000000000  1  # C
 91.512977429193  144.940973740823  12.700000000000  1  # C
 92.766305985259  144.248658160096  12.700000000000  1  # C
 90.232547475798  147.064861479970  12.700000000000  1  # C
 91.485876031863  146.372545899242  12.700000000000  1  # C
 88.952117522402  149.188749219116  12.700000000000  1  # C
 90.205446078468  148.496433638388  12.700000000000  1  # C
 87.671687569007  151.312636958262  12.700000000000  1  # C
 88.925016125072  150.620321377535  12.700000000000  1  # C
 86.391257615611  153.436524697409  12.700000000000  1  # C
 87.644586171677  152.744209116681  12.700000000000  1  # C
 85.110827662216  155.560412436555  12.700000000000  1  # C
 86.364156218281  154.868096855828  12.700000000000  1  # C
 83.830397708820  157.684300175702  12.700000000000  1  # C
 85.083726264886  156.991984594974  12.700000000000  1  # C
 82.549967755425  159.808187914848  12.700000000000  1  # C
 83.803296311491  159.115872334121  12.700000000000  1  # C
 81.269537802029  161.932075653995  12.700000000000  1  # C
 82.522866358095  161.239760073267  12.700000000000  1  # C
 79.989107848634  164.055963393141  12.700000000000  1  # C
 81.242436404700  163.363647812414  12.700000000000  1  # C
 78.708677895238  166.179851132288  12.700000000000  1  # C
 79.962006451304  165.487535551560  12.700000000000  1  # C
 77.428247941843  168.303738871434  12.700000000000  1  # C
 78.681576497909  167.611423290707  12.700000000000  1  # C
 76.147817988448  170.427626610580  12.700000000000  1  # C
 77.401146544513  169.735311029853  12.700000000000  1  # C
 74.867388035052  172.551514349727  12.700000000000  1  # C
 76.120716591118  171.859198768999  12.700000000000  1  # C
 73.586958081657  174.675402088873  12.700000000000  1  # C
 74.840286637722  173.983086508146  12.700000000000  1  # C
 111.918552491528  115.253486389937  12.700000000000  1  # C
 110.638122538132  117.377374129083  12.700000000000  1  # C
 111.891451094198  116.685058548356  12.700000000000  1  # C
 109.357692584737  119.501261868229  12.700000000000  1  # C
 110.611021140802  118.808946287502  12.700000000000  1  # C
 108.077262631341  121.625149607376  12.700000000000  1  # C
 109.330591187407  120.932834026648  12.700000000000  1  # C
 106.796832677946  123.749037346522  12.700000000000  1  # C
 108.050161234011  123.056721765795  12.700000000000  1  # C
 105.516402724550  125.872925085669  12.700000000000  1  # C
 106.769731280616  125.180609504941  12.700000000000  1  # C
 104.235972771155  127.996812824815  12.700000000000  1  # C
 105.489301327220  127.304497244088  12.700000000000  1  # C
 102.955542817759  130.120700563962  12.700000000000  1  # C
 104.208871373825  129.428384983234  12.700000000000  1  # C
 101.675112864364  132.244588303108  12.700000000000  1  # C
 102.928441420429  131.552272722381  12.700000000000  1  # C
 100.394682910968  134.368476042255  12.700000000000  1  # C
 101.648011467034  133.676160461527  12.700000000000  1  # C
 99.114252957573  136.492363781401  12.700000000000  1  # C
 100.367581513638  135.800048200674  12.700000000000  1  # C
 97.833823004177  138.616251520548  12.700000000000  1  # C
 99.087151560243  137.923935939820  12.700000000000  1  # C
 96.553393050782  140.740139259694  12.700000000000  1  # C
 97.806721606847  140.047823678967  12.700000000000  1  # C
 95.272963097386  142.864026998840  12.700000000000  1  # C
 96.526291653452  142.171711418113  12.700000000000  1  # C
 93.992533143991  144.987914737987  12.700000000000  1  # C
 95.245861700056  144.295599157259  12.700000000000  1  # C
 92.712103190595  147.111802477133  12.700000000000  1  # C
 93.965431746661  146.419486896406  12.700000000000  1  # C
 91.431673237200  149.235690216280  12.700000000000  1  # C
 92.685001793266  148.543374635552  12.700000000000  1  # C
 90.151243283804  151.359577955426  12.700000000000  1  # C
 91.404571839870  150.667262374699  12.700000000000  1  # C
 88.870813330409  153.483465694573  12.700000000000  1  # C
 90.124141886475  152.791150113845  12.700000000000  1  # C
 87.590383377013  155.607353433719  12.700000000000  1  # C
 88.843711933079  154.915037852992  12.700000000000  1  # C
 86.309953423618  157.731241172866  12.700000000000  1  # C
 87.563281979684  157.038925592138  12.700000000000  1  # C
 85.029523470222  159.855128912012  12.700000000000  1  # C
 86.282852026288  159.162813331285  12.700000000000  1  # C
 83.749093516827  161.979016651159  12.700000000000  1  # C
 85.002422072893  161.286701070431  12.700000000000  1  # C
 82.468663563431  164.102904390305  12.700000000000  1  # C
 83.721992119497  163.410588809578  12.700000000000  1  # C
 81.188233610036  166.226792129452  12.700000000000  1  # C
 82.441562166102  165.534476548724  12.700000000000  1  # C
 79.907803656641  168.350679868598  12.700000000000  1  # C
 81.161132212706  167.658364287870  12.700000000000  1  # C
 78.627373703245  170.474567607744  12.700000000000  1  # C
 79.880702259311  169.782252027017  12.700000000000  1  # C
 77.346943749850  172.598455346891  12.700000000000  1  # C
 78.600272305915  171.906139766163  12.700000000000  1  # C
 76.066513796454  174.722343086037  12.700000000000  1  # C
 77.319842352520  174.030027505310  12.700000000000  1  # C
 76.039412399124  176.153915244456  12.700000000000  1  # C
 111.837248299534  119.548202865393  12.700000000000  1  # C
 110.556818346139  121.672090604540  12.700000000000  1  # C
 111.810146902204  120.979775023812  12.700000000000  1  # C
 109.276388392743  123.795978343686  12.700000000000  1  # C
 110.529716948809  123.103662762959  12.700000000000  1  # C
 107.995958439348  125.919866082833  12.700000000000  1  # C
 109.249286995413  125.227550502105  12.700000000000  1  # C
 106.715528485952  128.043753821979  12.700000000000  1  # C
 107.968857042018  127.351438241252  12.700000000000  1  # C
 105.435098532557  130.167641561126  12.700000000000  1  # C
 106.688427088622  129.475325980398  12.700000000000  1  # C
 104.154668579161  132.291529300272  12.700000000000  1  # C
 105.407997135227  131.599213719545  12.700000000000  1  # C
 102.874238625766  134.415417039419  12.700000000000  1  # C
 104.127567181831  133.723101458691  12.700000000000  1  # C
 101.593808672370  136.539304778565  12.700000000000  1  # C
 102.847137228436  135.846989197838  12.700000000000  1  # C
 100.313378718975  138.663192517712  12.700000000000  1  # C
 101.566707275040  137.970876936984  12.700000000000  1  # C
 99.032948765579  140.787080256858  12.700000000000  1  # C
 100.286277321645  140.094764676130  12.700000000000  1  # C
 97.752518812184  142.910967996004  12.700000000000  1  # C
 99.005847368250  142.218652415277  12.700000000000  1  # C
 96.472088858788  145.034855735151  12.700000000000  1  # C
 97.725417414854  144.342540154423  12.700000000000  1  # C
 95.191658905393  147.158743474297  12.700000000000  1  # C
 96.444987461459  146.466427893570  12.700000000000  1  # C
 93.911228951997  149.282631213444  12.700000000000  1  # C
 95.164557508063  148.590315632716  12.700000000000  1  # C
 92.630798998602  151.406518952590  12.700000000000  1  # C
 93.884127554668  150.714203371863  12.700000000000  1  # C
 91.350369045206  153.530406691737  12.700000000000  1  # C
 92.603697601272  152.838091111009  12.700000000000  1  # C
 90.069939091811  155.654294430883  12.700000000000  1  # C
 91.323267647877  154.961978850156  12.700000000000  1  # C
 88.789509138416  157.778182170030  12.700000000000  1  # C
 90.042837694481  157.085866589302  12.700000000000  1  # C
 87.509079185020  159.902069909176  12.700000000000  1  # C
 88.762407741086  159.209754328449  12.700000000000  1  # C
 86.228649231625  162.025957648323  12.700000000000  1  # C
 87.481977787690  161.333642067595  12.700000000000  1  # C
 84.948219278229  164.149845387469  12.700000000000  1  # C
 86.201547834295  163.457529806741  12.700000000000  1  # C
 83.667789324834  166.273733126615  12.700000000000  1  # C
 84.921117880899  165.581417545888  12.700000000000  1  # C
 82.387359371438  168.397620865762  12.700000000000  1  # C
 83.640687927504  167.705305285034  12.700000000000  1  # C
 81.106929418043  170.521508604908  12.700000000000  1  # C
 82.360257974108  169.829193024181  12.700000000000  1  # C
 79.826499464647  172.645396344055  12.700000000000  1  # C
 81.079828020713  171.953080763327  12.700000000000  1  # C
 78.546069511252  174.769284083201  12.700000000000  1  # C
 79.799398067317  174.076968502474  12.700000000000  1  # C
 77.265639557856  176.893171822348  12.700000000000  1  # C
 78.518968113922  176.200856241620  12.700000000000  1  # C
 111.755944107541  123.842919340850  12.700000000000  1  # C
 110.475514154145  125.966807079997  12.700000000000  1  # C
 111.728842710211  125.274491499269  12.700000000000  1  # C
 109.195084200750  128.090694819143  12.700000000000  1  # C
 110.448412756815  127.398379238416  12.700000000000  1  # C
 107.914654247354  130.214582558290  12.700000000000  1  # C
 109.167982803420  129.522266977562  12.700000000000  1  # C
 106.634224293959  132.338470297436  12.700000000000  1  # C
 107.887552850024  131.646154716709  12.700000000000  1  # C
 105.353794340563  134.462358036582  12.700000000000  1  # C
 106.607122896629  133.770042455855  12.700000000000  1  # C
 104.073364387168  136.586245775729  12.700000000000  1  # C
 105.326692943234  135.893930195001  12.700000000000  1  # C
 102.792934433772  138.710133514875  12.700000000000  1  # C
 104.046262989838  138.017817934148  12.700000000000  1  # C
 101.512504480377  140.834021254022  12.700000000000  1  # C
 102.765833036443  140.141705673294  12.700000000000  1  # C
 100.232074526981  142.957908993168  12.700000000000  1  # C
 101.485403083047  142.265593412441  12.700000000000  1  # C
 98.951644573586  145.081796732315  12.700000000000  1  # C
 100.204973129652  144.389481151587  12.700000000000  1  # C
 97.671214620191  147.205684471461  12.700000000000  1  # C
 98.924543176256  146.513368890734  12.700000000000  1  # C
 96.390784666795  149.329572210608  12.700000000000  1  # C
 97.644113222861  148.637256629880  12.700000000000  1  # C
 95.110354713400  151.453459949754  12.700000000000  1  # C
 96.363683269465  150.761144369027  12.700000000000  1  # C
 93.829924760004  153.577347688901  12.700000000000  1  # C
 95.083253316070  152.885032108173  12.700000000000  1  # C
 92.549494806609  155.701235428047  12.700000000000  1  # C
 93.802823362674  155.008919847320  12.700000000000  1  # C
 91.269064853213  157.825123167193  12.700000000000  1  # C
 92.522393409279  157.132807586466  12.700000000000  1  # C
 89.988634899818  159.949010906340  12.700000000000  1  # C
 91.241963455883  159.256695325612  12.700000000000  1  # C
 88.708204946422  162.072898645486  12.700000000000  1  # C
 89.961533502488  161.380583064759  12.700000000000  1  # C
 87.427774993027  164.196786384633  12.700000000000  1  # C
 88.681103549092  163.504470803905  12.700000000000  1  # C
 86.147345039631  166.320674123779  12.700000000000  1  # C
 87.400673595697  165.628358543052  12.700000000000  1  # C
 84.866915086236  168.444561862926  12.700000000000  1  # C
 86.120243642301  167.752246282198  12.700000000000  1  # C
 83.586485132840  170.568449602072  12.700000000000  1  # C
 84.839813688906  169.876134021345  12.700000000000  1  # C
 82.306055179445  172.692337341219  12.700000000000  1  # C
 83.559383735510  172.000021760491  12.700000000000  1  # C
 81.025625226049  174.816225080365  12.700000000000  1  # C
 82.278953782115  174.123909499638  12.700000000000  1  # C
 79.745195272654  176.940112819512  12.700000000000  1  # C
 80.998523828719  176.247797238784  12.700000000000  1  # C
 79.718093875324  178.371684977931  12.700000000000  1  # C
 111.674639915547  128.137635816307  12.700000000000  1  # C
 110.394209962152  130.261523555454  12.700000000000  1  # C
 111.647538518218  129.569207974726  12.700000000000  1  # C
 109.113780008756  132.385411294600  12.700000000000  1  # C
 110.367108564822  131.693095713872  12.700000000000  1  # C
 107.833350055361  134.509299033746  12.700000000000  1  # C
 109.086678611427  133.816983453019  12.700000000000  1  # C
 106.552920101965  136.633186772893  12.700000000000  1  # C
 107.806248658031  135.940871192165  12.700000000000  1  # C
 105.272490148570  138.757074512039  12.700000000000  1  # C
 106.525818704636  138.064758931312  12.700000000000  1  # C
 103.992060195175  140.880962251186  12.700000000000  1  # C
 105.245388751240  140.188646670458  12.700000000000  1  # C
 102.711630241779  143.004849990332  12.700000000000  1  # C
 103.964958797845  142.312534409605  12.700000000000  1  # C
 101.431200288384  145.128737729479  12.700000000000  1  # C
 102.684528844449  144.436422148751  12.700000000000  1  # C
 100.150770334988  147.252625468625  12.700000000000  1  # C
 101.404098891054  146.560309887898  12.700000000000  1  # C
 98.870340381593  149.376513207772  12.700000000000  1  # C
 100.123668937658  148.684197627044  12.700000000000  1  # C
 97.589910428197  151.500400946918  12.700000000000  1  # C
 98.843238984263  150.808085366191  12.700000000000  1  # C
 96.309480474802  153.624288686065  12.700000000000  1  # C
 97.562809030867  152.931973105337  12.700000000000  1  # C
 95.029050521406  155.748176425211  12.700000000000  1  # C
 96.282379077472  155.055860844483  12.700000000000  1  # C
 93.748620568011  157.872064164357  12.700000000000  1  # C
 95.001949124076  157.179748583630  12.700000000000  1  # C
 92.468190614615  159.995951903504  12.700000000000  1  # C
 93.721519170681  159.303636322776  12.700000000000  1  # C
 91.187760661220  162.119839642650  12.700000000000  1  # C
 92.441089217285  161.427524061923  12.700000000000  1  # C
 89.907330707824  164.243727381797  12.700000000000  1  # C
 91.160659263890  163.551411801069  12.700000000000  1  # C
 88.626900754429  166.367615120943  12.700000000000  1  # C
 89.880229310494  165.675299540216  12.700000000000  1  # C
 87.346470801033  168.491502860090  12.700000000000  1  # C
 88.599799357099  167.799187279362  12.700000000000  1  # C
 86.066040847638  170.615390599236  12.700000000000  1  # C
 87.319369403703  169.923075018509  12.700000000000  1  # C
 84.785610894242  172.739278338383  12.700000000000  1  # C
 86.038939450308  172.046962757655  12.700000000000  1  # C
 83.505180940847  174.863166077529  12.700000000000  1  # C
 84.758509496912  174.170850496802  12.700000000000  1  # C
 82.224750987451  176.987053816676  12.700000000000  1  # C
 83.478079543517  176.294738235948  12.700000000000  1  # C
 80.944321034056  179.110941555822  12.700000000000  1  # C
 82.197649590121  178.418625975094  12.700000000000  1  # C
 111.593335723554  132.432352291764  12.700000000000  1  # C
 110.312905770159  134.556240030910  12.700000000000  1  # C
 111.566234326224  133.863924450183  12.700000000000  1  # C
 109.032475816763  136.680127770057  12.700000000000  1  # C
 110.285804372829  135.987812189329  12.700000000000  1  # C
 107.752045863368  138.804015509203  12.700000000000  1  # C
 109.005374419433  138.111699928476  12.700000000000  1  # C
 106.471615909972  140.927903248350  12.700000000000  1  # C
 107.724944466038  140.235587667622  12.700000000000  1  # C
 105.191185956577  143.051790987496  12.700000000000  1  # C
 106.444514512642  142.359475406769  12.700000000000  1  # C
 103.910756003181  145.175678726643  12.700000000000  1  # C
 105.164084559247  144.483363145915  12.700000000000  1  # C
 102.630326049786  147.299566465789  12.700000000000  1  # C
 103.883654605851  146.607250885062  12.700000000000  1  # C
 101.349896096390  149.423454204936  12.700000000000  1  # C
 102.603224652456  148.731138624208  12.700000000000  1  # C
 100.069466142995  151.547341944082  12.700000000000  1  # C
 101.322794699060  150.855026363354  12.700000000000  1  # C
 98.789036189599  153.671229683228  12.700000000000  1  # C
 100.042364745665  152.978914102501  12.700000000000  1  # C
 97.508606236204  155.795117422375  12.700000000000  1  # C
 98.761934792269  155.102801841647  12.700000000000  1  # C
 96.228176282808  157.919005161521  12.700000000000  1  # C
 97.481504838874  157.226689580794  12.700000000000  1  # C
 94.947746329413  160.042892900668  12.700000000000  1  # C
 96.201074885478  159.350577319940  12.700000000000  1  # C
 93.667316376017  162.166780639814  12.700000000000  1  # C
 94.920644932083  161.474465059087  12.700000000000  1  # C
 92.386886422622  164.290668378961  12.700000000000  1  # C
 93.640214978687  163.598352798233  12.700000000000  1  # C
 91.106456469226  166.414556118107  12.700000000000  1  # C
 92.359785025292  165.722240537380  12.700000000000  1  # C
 89.826026515831  168.538443857254  12.700000000000  1  # C
 91.079355071896  167.846128276526  12.700000000000  1  # C
 88.545596562435  170.662331596400  12.700000000000  1  # C
 89.798925118501  169.970016015673  12.700000000000  1  # C
 87.265166609040  172.786219335547  12.700000000000  1  # C
 88.518495165105  172.093903754819  12.700000000000  1  # C
 85.984736655644  174.910107074693  12.700000000000  1  # C
 87.238065211710  174.217791493966  12.700000000000  1  # C
 84.704306702249  177.033994813839  12.700000000000  1  # C
 85.957635258314  176.341679233112  12.700000000000  1  # C
 83.423876748853  179.157882552986  12.700000000000  1  # C
 84.677205304919  178.465566972258  12.700000000000  1  # C
 83.396775351523  180.589454711405  12.700000000000  1  # C
 111.512031531561  136.727068767221  12.700000000000  1  # C
 110.231601578165  138.850956506367  12.700000000000  1  # C
 111.484930134231  138.158640925640  12.700000000000  1  # C
 108.951171624770  140.974844245514  12.700000000000  1  # C
 110.204500180835  140.282528664786  12.700000000000  1  # C
 107.670741671374  143.098731984660  12.700000000000  1  # C
 108.924070227440  142.406416403933  12.700000000000  1  # C
 106.390311717979  145.222619723807  12.700000000000  1  # C
 107.643640274044  144.530304143079  12.700000000000  1  # C
 105.109881764583  147.346507462953  12.700000000000  1  # C
 106.363210320649  146.654191882225  12.700000000000  1  # C
 103.829451811188  149.470395202099  12.700000000000  1  # C
 105.082780367253  148.778079621372  12.700000000000  1  # C
 102.549021857792  151.594282941246  12.700000000000  1  # C
 103.802350413858  150.901967360518  12.700000000000  1  # C
 101.268591904397  153.718170680392  12.700000000000  1  # C
 102.521920460462  153.025855099665  12.700000000000  1  # C
 99.988161951001  155.842058419539  12.700000000000  1  # C
 101.241490507067  155.149742838811  12.700000000000  1  # C
 98.707731997606  157.965946158685  12.700000000000  1  # C
 99.961060553671  157.273630577958  12.700000000000  1  # C
 97.427302044210  160.089833897832  12.700000000000  1  # C
 98.680630600276  159.397518317104  12.700000000000  1  # C
 96.146872090815  162.213721636978  12.700000000000  1  # C
 97.400200646880  161.521406056251  12.700000000000  1  # C
 94.866442137419  164.337609376125  12.700000000000  1  # C
 96.119770693485  163.645293795397  12.700000000000  1  # C
 93.586012184024  166.461497115271  12.700000000000  1  # C
 94.839340740089  165.769181534544  12.700000000000  1  # C
 92.305582230628  168.585384854418  12.700000000000  1  # C
 93.558910786694  167.893069273690  12.700000000000  1  # C
 91.025152277233  170.709272593564  12.700000000000  1  # C
 92.278480833298  170.016957012836  12.700000000000  1  # C
 89.744722323837  172.833160332710  12.700000000000  1  # C
 90.998050879903  172.140844751983  12.700000000000  1  # C
 88.464292370442  174.957048071857  12.700000000000  1  # C
 89.717620926508  174.264732491129  12.700000000000  1  # C
 87.183862417046  177.080935811003  12.700000000000  1  # C
 88.437190973112  176.388620230276  12.700000000000  1  # C
 85.903432463651  179.204823550150  12.700000000000  1  # C
 87.156761019717  178.512507969422  12.700000000000  1  # C
 84.623002510255  181.328711289296  12.700000000000  1  # C
 85.876331066321  180.636395708569  12.700000000000  1  # C
 111.430727339567  141.021785242678  12.700000000000  1  # C
 110.150297386172  143.145672981824  12.700000000000  1  # C
 111.403625942237  142.453357401096  12.700000000000  1  # C
 108.869867432776  145.269560720970  12.700000000000  1  # C
 110.123195988842  144.577245140243  12.700000000000  1  # C
 107.589437479381  147.393448460117  12.700000000000  1  # C
 108.842766035446  146.701132879389  12.700000000000  1  # C
 106.309007525985  149.517336199263  12.700000000000  1  # C
 107.562336082051  148.825020618536  12.700000000000  1  # C
 105.028577572590  151.641223938410  12.700000000000  1  # C
 106.281906128655  150.948908357682  12.700000000000  1  # C
 103.748147619194  153.765111677556  12.700000000000  1  # C
 105.001476175260  153.072796096829  12.700000000000  1  # C
 102.467717665799  155.888999416703  12.700000000000  1  # C
 103.721046221864  155.196683835975  12.700000000000  1  # C
 101.187287712403  158.012887155849  12.700000000000  1  # C
 102.440616268469  157.320571575122  12.700000000000  1  # C
 99.906857759008  160.136774894996  12.700000000000  1  # C
 101.160186315073  159.444459314268  12.700000000000  1  # C
 98.626427805612  162.260662634142  12.700000000000  1  # C
 99.879756361678  161.568347053415  12.700000000000  1  # C
 97.345997852217  164.384550373289  12.700000000000  1  # C
 98.599326408282  163.692234792561  12.700000000000  1  # C
 96.065567898821  166.508438112435  12.700000000000  1  # C
 97.318896454887  165.816122531707  12.700000000000  1  # C
 94.785137945426  168.632325851581  12.700000000000  1  # C
 96.038466501492  167.940010270854  12.700000000000  1  # C
 93.504707992030  170.756213590728  12.700000000000  1  # C
 94.758036548096  170.063898010000  12.700000000000  1  # C
 92.224278038635  172.880101329874  12.700000000000  1  # C
 93.477606594701  172.187785749147  12.700000000000  1  # C
 90.943848085239  175.003989069021  12.700000000000  1  # C
 92.197176641305  174.311673488293  12.700000000000  1  # C
 89.663418131844  177.127876808167  12.700000000000  1  # C
 90.916746687910  176.435561227440  12.700000000000  1  # C
 88.382988178448  179.251764547314  12.700000000000  1  # C
 89.636316734514  178.559448966586  12.700000000000  1  # C
 87.102558225053  181.375652286460  12.700000000000  1  # C
 88.355886781119  180.683336705733  12.700000000000  1  # C
 87.075456827723  182.807224444879  12.700000000000  1  # C
 111.349423147574  145.316501718134  12.700000000000  1  # C
 110.068993194178  147.440389457281  12.700000000000  1  # C
 111.322321750244  146.748073876553  12.700000000000  1  # C
 108.788563240783  149.564277196427  12.700000000000  1  # C
 110.041891796848  148.871961615700  12.700000000000  1  # C
 107.508133287387  151.688164935574  12.700000000000  1  # C
 108.761461843453  150.995849354846  12.700000000000  1  # C
 106.227703333992  153.812052674720  12.700000000000  1  # C
 107.481031890057  153.119737093993  12.700000000000  1  # C
 104.947273380596  155.935940413867  12.700000000000  1  # C
 106.200601936662  155.243624833139  12.700000000000  1  # C
 103.666843427201  158.059828153013  12.700000000000  1  # C
 104.920171983266  157.367512572286  12.700000000000  1  # C
 102.386413473805  160.183715892160  12.700000000000  1  # C
 103.639742029871  159.491400311432  12.700000000000  1  # C
 101.105983520410  162.307603631306  12.700000000000  1  # C
 102.359312076476  161.615288050578  12.700000000000  1  # C
 99.825553567014  164.431491370452  12.700000000000  1  # C
 101.078882123080  163.739175789725  12.700000000000  1  # C
 98.545123613619  166.555379109599  12.700000000000  1  # C
 99.798452169685  165.863063528871  12.700000000000  1  # C
 97.264693660223  168.679266848745  12.700000000000  1  # C
 98.518022216289  167.986951268018  12.700000000000  1  # C
 95.984263706828  170.803154587892  12.700000000000  1  # C
 97.237592262894  170.110839007164  12.700000000000  1  # C
 94.703833753433  172.927042327038  12.700000000000  1  # C
 95.957162309498  172.234726746311  12.700000000000  1  # C
 93.423403800037  175.050930066185  12.700000000000  1  # C
 94.676732356103  174.358614485457  12.700000000000  1  # C
 92.142973846642  177.174817805331  12.700000000000  1  # C
 93.396302402707  176.482502224604  12.700000000000  1  # C
 90.862543893246  179.298705544478  12.700000000000  1  # C
 92.115872449312  178.606389963750  12.700000000000  1  # C
 89.582113939851  181.422593283624  12.700000000000  1  # C
 90.835442495916  180.730277702897  12.700000000000  1  # C
 88.301683986455  183.546481022771  12.700000000000  1  # C
 89.555012542521  182.854165442043  12.700000000000  1  # C
 111.268118955580  149.611218193591  12.700000000000  1  # C
 109.987689002185  151.735105932738  12.700000000000  1  # C
 111.241017558251  151.042790352010  12.700000000000  1  # C
 108.707259048789  153.858993671884  12.700000000000  1  # C
 109.960587604855  153.166678091157  12.700000000000  1  # C
 107.426829095394  155.982881411031  12.700000000000  1  # C
 108.680157651460  155.290565830303  12.700000000000  1  # C
 106.146399141998  158.106769150177  12.700000000000  1  # C
 107.399727698064  157.414453569450  12.700000000000  1  # C
 104.865969188603  160.230656889323  12.700000000000  1  # C
 106.119297744669  159.538341308596  12.700000000000  1  # C
 103.585539235208  162.354544628470  12.700000000000  1  # C
 104.838867791273  161.662229047742  12.700000000000  1  # C
 102.305109281812  164.478432367616  12.700000000000  1  # C
 103.558437837878  163.786116786889  12.700000000000  1  # C
 101.024679328417  166.602320106763  12.700000000000  1  # C
 102.278007884482  165.910004526035  12.700000000000  1  # C
 99.744249375021  168.726207845909  12.700000000000  1  # C
 100.997577931087  168.033892265182  12.700000000000  1  # C
 98.463819421626  170.850095585056  12.700000000000  1  # C
 99.717147977691  170.157780004328  12.700000000000  1  # C
 97.183389468230  172.973983324202  12.700000000000  1  # C
 98.436718024296  172.281667743475  12.700000000000  1  # C
 95.902959514835  175.097871063349  12.700000000000  1  # C
 97.156288070900  174.405555482621  12.700000000000  1  # C
 94.622529561439  177.221758802495  12.700000000000  1  # C
 95.875858117505  176.529443221768  12.700000000000  1  # C
 93.342099608044  179.345646541642  12.700000000000  1  # C
 94.595428164109  178.653330960914  12.700000000000  1  # C
 92.061669654648  181.469534280788  12.700000000000  1  # C
 93.314998210714  180.777218700061  12.700000000000  1  # C
 90.781239701253  183.593422019934  12.700000000000  1  # C
 92.034568257318  182.901106439207  12.700000000000  1  # C
 90.754138303923  185.024994178353  12.700000000000  1  # C
 111.186814763587  153.905934669048  12.700000000000  1  # C
 109.906384810192  156.029822408194  12.700000000000  1  # C
 111.159713366257  155.337506827467  12.700000000000  1  # C
 108.625954856796  158.153710147341  12.700000000000  1  # C
 109.879283412862  157.461394566613  12.700000000000  1  # C
 107.345524903401  160.277597886487  12.700000000000  1  # C
 108.598853459466  159.585282305760  12.700000000000  1  # C
 106.065094950005  162.401485625634  12.700000000000  1  # C
 107.318423506071  161.709170044906  12.700000000000  1  # C
 104.784664996610  164.525373364780  12.700000000000  1  # C
 106.037993552675  163.833057784053  12.700000000000  1  # C
 103.504235043214  166.649261103927  12.700000000000  1  # C
 104.757563599280  165.956945523199  12.700000000000  1  # C
 102.223805089819  168.773148843073  12.700000000000  1  # C
 103.477133645884  168.080833262346  12.700000000000  1  # C
 100.943375136423  170.897036582220  12.700000000000  1  # C
 102.196703692489  170.204721001492  12.700000000000  1  # C
 99.662945183028  173.020924321366  12.700000000000  1  # C
 100.916273739093  172.328608740639  12.700000000000  1  # C
 98.382515229632  175.144812060513  12.700000000000  1  # C
 99.635843785698  174.452496479785  12.700000000000  1  # C
 97.102085276237  177.268699799659  12.700000000000  1  # C
 98.355413832302  176.576384218932  12.700000000000  1  # C
 95.821655322841  179.392587538805  12.700000000000  1  # C
 97.074983878907  178.700271958078  12.700000000000  1  # C
 94.541225369446  181.516475277952  12.700000000000  1  # C
 95.794553925511  180.824159697224  12.700000000000  1  # C
 93.260795416050  183.640363017098  12.700000000000  1  # C
 94.514123972116  182.948047436371  12.700000000000  1  # C
 91.980365462655  185.764250756245  12.700000000000  1  # C
 93.233694018720  185.071935175517  12.700000000000  1  # C
 111.105510571594  158.200651144505  12.700000000000  1  # C
 109.825080618198  160.324538883651  12.700000000000  1  # C
 111.078409174264  159.632223302924  12.700000000000  1  # C
 108.544650664803  162.448426622798  12.700000000000  1  # C
 109.797979220868  161.756111042070  12.700000000000  1  # C
 107.264220711407  164.572314361944  12.700000000000  1  # C
 108.517549267473  163.879998781217  12.700000000000  1  # C
 105.983790758012  166.696202101091  12.700000000000  1  # C
 107.237119314077  166.003886520363  12.700000000000  1  # C
 104.703360804616  168.820089840237  12.700000000000  1  # C
 105.956689360682  168.127774259510  12.700000000000  1  # C
 103.422930851221  170.943977579384  12.700000000000  1  # C
 104.676259407286  170.251661998656  12.700000000000  1  # C
 102.142500897825  173.067865318530  12.700000000000  1  # C
 103.395829453891  172.375549737803  12.700000000000  1  # C
 100.862070944430  175.191753057676  12.700000000000  1  # C
 102.115399500495  174.499437476949  12.700000000000  1  # C
 99.581640991034  177.315640796823  12.700000000000  1  # C
 100.834969547100  176.623325216095  12.700000000000  1  # C
 98.301211037639  179.439528535969  12.700000000000  1  # C
 99.554539593704  178.747212955242  12.700000000000  1  # C
 97.020781084243  181.563416275116  12.700000000000  1  # C
 98.274109640309  180.871100694388  12.700000000000  1  # C
 95.740351130848  183.687304014262  12.700000000000  1  # C
 96.993679686913  182.994988433535  12.700000000000  1  # C
 94.459921177452  185.811191753409  12.700000000000  1  # C
 95.713249733518  185.118876172681  12.700000000000  1  # C
 94.432819780122  187.242763911828  12.700000000000  1  # C
 111.024206379600  162.495367619962  12.700000000000  1  # C
 109.743776426205  164.619255359108  12.700000000000  1  # C
 110.997104982270  163.926939778381  12.700000000000  1  # C
 108.463346472809  166.743143098255  12.700000000000  1  # C
 109.716675028875  166.050827517527  12.700000000000  1  # C
 107.182916519414  168.867030837401  12.700000000000  1  # C
 108.436245075479  168.174715256674  12.700000000000  1  # C
 105.902486566018  170.990918576547  12.700000000000  1  # C
 107.155815122084  170.298602995820  12.700000000000  1  # C
 104.622056612623  173.114806315694  12.700000000000  1  # C
 105.875385168688  172.422490734966  12.700000000000  1  # C
 103.341626659227  175.238694054840  12.700000000000  1  # C
 104.594955215293  174.546378474113  12.700000000000  1  # C
 102.061196705832  177.362581793987  12.700000000000  1  # C
 103.314525261897  176.670266213259  12.700000000000  1  # C
 100.780766752436  179.486469533133  12.700000000000  1  # C
 102.034095308502  178.794153952406  12.700000000000  1  # C
 99.500336799041  181.610357272280  12.700000000000  1  # C
 100.753665355106  180.918041691552  12.700000000000  1  # C
 98.219906845645  183.734245011426  12.700000000000  1  # C
 99.473235401711  183.041929430699  12.700000000000  1  # C
 96.939476892250  185.858132750573  12.700000000000  1  # C
 98.192805448315  185.165817169845  12.700000000000  1  # C
 95.659046938854  187.982020489719  12.700000000000  1  # C
 96.912375494920  187.289704908992  12.700000000000  1  # C
 110.942902187607  166.790084095418  12.700000000000  1  # C
 109.662472234211  168.913971834565  12.700000000000  1  # C
 110.915800790277  168.221656253837  12.700000000000  1  # C
 108.382042280816  171.037859573711  12.700000000000  1  # C
 109.635370836881  170.345543992984  12.700000000000  1  # C
 107.101612327420  173.161747312858  12.700000000000  1  # C
 108.354940883486  172.469431732130  12.700000000000  1  # C
 105.821182374025  175.285635052004  12.700000000000  1  # C
 107.074510930090  174.593319471277  12.700000000000  1  # C
 104.540752420629  177.409522791151  12.700000000000  1  # C
 105.794080976695  176.717207210423  12.700000000000  1  # C
 103.260322467234  179.533410530297  12.700000000000  1  # C
 104.513651023299  178.841094949570  12.700000000000  1  # C
 101.979892513838  181.657298269444  12.700000000000  1  # C
 103.233221069904  180.964982688716  12.700000000000  1  # C
 100.699462560443  183.781186008590  12.700000000000  1  # C
 101.952791116509  183.088870427863  12.700000000000  1  # C
 99.419032607047  185.905073747737  12.700000000000  1  # C
 100.672361163113  185.212758167009  12.700000000000  1  # C
 98.138602653652  188.028961486883  12.700000000000  1  # C
 99.391931209718  187.336645906156  12.700000000000  1  # C
 98.111501256322  189.460533645302  12.700000000000  1  # C
 110.861597995613  171.084800570875  12.700000000000  1  # C
 109.581168042218  173.208688310022  12.700000000000  1  # C
 110.834496598284  172.516372729294  12.700000000000  1  # C
 108.300738088822  175.332576049168  12.700000000000  1  # C
 109.554066644888  174.640260468441  12.700000000000  1  # C
 107.020308135427  177.456463788315  12.700000000000  1  # C
 108.273636691493  176.764148207587  12.700000000000  1  # C
 105.739878182031  179.580351527461  12.700000000000  1  # C
 106.993206738097  178.888035946734  12.700000000000  1  # C
 104.459448228636  181.704239266608  12.700000000000  1  # C
 105.712776784702  181.011923685880  12.700000000000  1  # C
 103.179018275240  183.828127005754  12.700000000000  1  # C
 104.432346831306  183.135811425027  12.700000000000  1  # C
 101.898588321845  185.952014744901  12.700000000000  1  # C
 103.151916877911  185.259699164173  12.700000000000  1  # C
 100.618158368450  188.075902484047  12.700000000000  1  # C
 101.871486924515  187.383586903319  12.700000000000  1  # C
 99.337728415054  190.199790223193  12.700000000000  1  # C
 100.591056971120  189.507474642466  12.700000000000  1  # C
 110.780293803620  175.379517046332  12.700000000000  1  # C
 109.499863850224  177.503404785479  12.700000000000  1  # C
 110.753192406290  176.811089204751  12.700000000000  1  # C
 108.219433896829  179.627292524625  12.700000000000  1  # C
 109.472762452895  178.934976943898  12.700000000000  1  # C
 106.939003943434  181.751180263772  12.700000000000  1  # C
 108.192332499499  181.058864683044  12.700000000000  1  # C
 105.658573990038  183.875068002918  12.700000000000  1  # C
 106.911902546104  183.182752422190  12.700000000000  1  # C
 104.378144036643  185.998955742064  12.700000000000  1  # C
 105.631472592708  185.306640161337  12.700000000000  1  # C
 103.097714083247  188.122843481211  12.700000000000  1  # C
 104.351042639313  187.430527900483  12.700000000000  1  # C
 101.817284129852  190.246731220357  12.700000000000  1  # C
 103.070612685917  189.554415639630  12.700000000000  1  # C
 101.790182732522  191.678303378776  12.700000000000  1  # C
 110.698989611627  179.674233521789  12.700000000000  1  # C
 109.418559658231  181.798121260935  12.700000000000  1  # C
 110.671888214297  181.105805680208  12.700000000000  1  # C
 108.138129704836  183.922009000082  12.700000000000  1  # C
 109.391458260901  183.229693419354  12.700000000000  1  # C
 106.857699751440  186.045896739228  12.700000000000  1  # C
 108.111028307506  185.353581158501  12.700000000000  1  # C
 105.577269798045  188.169784478375  12.700000000000  1  # C
 106.830598354110  187.477468897647  12.700000000000  1  # C
 104.296839844649  190.293672217521  12.700000000000  1  # C
 105.550168400715  189.601356636794  12.700000000000  1  # C
 103.016409891254  192.417559956668  12.700000000000  1  # C
 104.269738447319  191.725244375940  12.700000000000  1  # C
 110.617685419633  183.968949997246  12.700000000000  1  # C
 109.337255466238  186.092837736392  12.700000000000  1  # C
 110.590584022303  185.400522155665  12.700000000000  1  # C
 108.056825512842  188.216725475539  12.700000000000  1  # C
 109.310154068908  187.524409894811  12.700000000000  1  # C
 106.776395559447  190.340613214685  12.700000000000  1  # C
 108.029724115512  189.648297633958  12.700000000000  1  # C
 105.495965606051  192.464500953832  12.700000000000  1  # C
 106.749294162117  191.772185373104  12.700000000000  1  # C
 105.468864208721  193.896073112251  12.700000000000  1  # C
 110.536381227640  188.263666472703  12.700000000000  1  # C
 109.255951274244  190.387554211849  12.700000000000  1  # C
 110.509279830310  189.695238631122  12.700000000000  1  # C
 107.975521320849  192.511441950996  12.700000000000  1  # C
 109.228849876914  191.819126370268  12.700000000000  1  # C
 106.695091367453  194.635329690142  12.700000000000  1  # C
 107.948419923519  193.943014109414  12.700000000000  1  # C
 110.455077035646  192.558382948159  12.700000000000  1  # C
 109.174647082251  194.682270687306  12.700000000000  1  # C
 110.427975638316  193.989955106578  12.700000000000  1  # C
 109.147545684921  196.113842845725  12.700000000000  1  # C
 110.373772843653  196.853099423616  12.700000000000  1  # C
%endblock AtomicCoordinatesAndAtomicSpecies
#
# k-point sampling
#

%block kgrid_Monkhorst_Pack
  1  0  0  0.0
  0  1  0  0.0
   0   0   1  0.0
%endblock kgrid_Monkhorst_Pack

#
# DFT, grid and SCF
#

XC.functional          VDW
XC.authors             DRSLL

MeshCutoff             600.0 Ry
MaxSCFIterations       500
DM.MixingWeight        0.1
DM.NumberPulay         5
DM.Tolerance           1.d-4
DM.UseSaveDM           F
SolutionMethod         diagon
ElectronicTemperature  0.075 eV

#
# Raw SIESTA artifacts for Graph2Mat/DeepH
#

SaveHS                           true
Save.HS                          T
TS.HS.Save                       T
TS.DE.Save                       T
XML.Write                        T

WriteMullikenPop       1
Write.OrbitalIndex               T
WriteForces            T
WriteCoorXmol          T

#
# Molecular dynamics
#


#
# Store Hamiltonians for each MD step
#
