SystemName         graphene_6x6
SystemLabel        graphene_6x6

NumberOfAtoms      72
NumberOfSpecies    1

%block ChemicalSpeciesLabel
  1   6  C
%endblock ChemicalSpeciesLabel


%block PAO.Basis
C           2
 n=2   0   1
   4.088
   1.000
 n=2   1   1
   4.870
   1.000
%endblock PAO.Basis


#
# Atomic structure: explicit 6x6x1 graphene supercell
#
# Primitive graphene input:
#   LatticeConstant = 1.467 Ang
#   a1 = (1.5, -0.8660254038, 0)
#   a2 = (1.5,  0.8660254038, 0)
#
# This file uses explicit supercell vectors:
#   A1 = 6 a1
#   A2 = 6 a2
#   A3 = a3
#
# Coordinates are fractional with respect to the 6x6x1 supercell.
# The structure has been shifted so that one C atom is exactly at:
#   (0.5, 0.5, 0.0)
#

LatticeConstant      1.46700 Ang

%block LatticeVectors
   9.0000000000      -5.1961524228        0.0000000000
   9.0000000000       5.1961524228        0.0000000000
   0.0000000000       0.0000000000       20.0000000000
%endblock LatticeVectors

AtomicCoordinatesFormat Fractional

%block AtomicCoordinatesAndAtomicSpecies

# i = 0
   0.0000000000   0.0000000000   0.0000000000   1
   0.0555555556   0.0555555556   0.0000000000   1

   0.0000000000   0.1666666667   0.0000000000   1
   0.0555555556   0.2222222222   0.0000000000   1

   0.0000000000   0.3333333333   0.0000000000   1
   0.0555555556   0.3888888889   0.0000000000   1

   0.0000000000   0.5000000000   0.0000000000   1
   0.0555555556   0.5555555556   0.0000000000   1

   0.0000000000   0.6666666667   0.0000000000   1
   0.0555555556   0.7222222222   0.0000000000   1

   0.0000000000   0.8333333333   0.0000000000   1
   0.0555555556   0.8888888889   0.0000000000   1


# i = 1
   0.1666666667   0.0000000000   0.0000000000   1
   0.2222222222   0.0555555556   0.0000000000   1

   0.1666666667   0.1666666667   0.0000000000   1
   0.2222222222   0.2222222222   0.0000000000   1

   0.1666666667   0.3333333333   0.0000000000   1
   0.2222222222   0.3888888889   0.0000000000   1

   0.1666666667   0.5000000000   0.0000000000   1
   0.2222222222   0.5555555556   0.0000000000   1

   0.1666666667   0.6666666667   0.0000000000   1
   0.2222222222   0.7222222222   0.0000000000   1

   0.1666666667   0.8333333333   0.0000000000   1
   0.2222222222   0.8888888889   0.0000000000   1


# i = 2
   0.3333333333   0.0000000000   0.0000000000   1
   0.3888888889   0.0555555556   0.0000000000   1

   0.3333333333   0.1666666667   0.0000000000   1
   0.3888888889   0.2222222222   0.0000000000   1

   0.3333333333   0.3333333333   0.0000000000   1
   0.3888888889   0.3888888889   0.0000000000   1

   0.3333333333   0.5000000000   0.0000000000   1
   0.3888888889   0.5555555556   0.0000000000   1

   0.3333333333   0.6666666667   0.0000000000   1
   0.3888888889   0.7222222222   0.0000000000   1

   0.3333333333   0.8333333333   0.0000000000   1
   0.3888888889   0.8888888889   0.0000000000   1


# i = 3
   0.5000000000   0.0000000000   0.0000000000   1
   0.5555555556   0.0555555556   0.0000000000   1

   0.5000000000   0.1666666667   0.0000000000   1
   0.5555555556   0.2222222222   0.0000000000   1

   0.5000000000   0.3333333333   0.0000000000   1
   0.5555555556   0.3888888889   0.0000000000   1

   0.5000000000   0.5000000000   0.0000000000   1
   0.5555555556   0.5555555556   0.0000000000   1

   0.5000000000   0.6666666667   0.0000000000   1
   0.5555555556   0.7222222222   0.0000000000   1

   0.5000000000   0.8333333333   0.0000000000   1
   0.5555555556   0.8888888889   0.0000000000   1


# i = 4
   0.6666666667   0.0000000000   0.0000000000   1
   0.7222222222   0.0555555556   0.0000000000   1

   0.6666666667   0.1666666667   0.0000000000   1
   0.7222222222   0.2222222222   0.0000000000   1

   0.6666666667   0.3333333333   0.0000000000   1
   0.7222222222   0.3888888889   0.0000000000   1

   0.6666666667   0.5000000000   0.0000000000   1
   0.7222222222   0.5555555556   0.0000000000   1

   0.6666666667   0.6666666667   0.0000000000   1
   0.7222222222   0.7222222222   0.0000000000   1

   0.6666666667   0.8333333333   0.0000000000   1
   0.7222222222   0.8888888889   0.0000000000   1


# i = 5
   0.8333333333   0.0000000000   0.0000000000   1
   0.8888888889   0.0555555556   0.0000000000   1

   0.8333333333   0.1666666667   0.0000000000   1
   0.8888888889   0.2222222222   0.0000000000   1

   0.8333333333   0.3333333333   0.0000000000   1
   0.8888888889   0.3888888889   0.0000000000   1

   0.8333333333   0.5000000000   0.0000000000   1
   0.8888888889   0.5555555556   0.0000000000   1

   0.8333333333   0.6666666667   0.0000000000   1
   0.8888888889   0.7222222222   0.0000000000   1

   0.8333333333   0.8333333333   0.0000000000   1
   0.8888888889   0.8888888889   0.0000000000   1

%endblock AtomicCoordinatesAndAtomicSpecies


#
# k-point sampling
#
# Original primitive cell used 20x20x1.
# For a 6x6x1 supercell:
#
#      20 / 6 = 3.333...
#
# so 3x3x1 gives approximately the same k-point density.
#

%block kgrid_Monkhorst_Pack
   3   0   0  0.0
   0   3   0  0.0
   0   0   1  0.0
%endblock kgrid_Monkhorst_Pack


#
# DFT, Grid, SCF
#

XC.functional          GGA
XC.authors             PBE

MeshCutoff             600.0 Ry
MaxSCFIterations       500
DM.MixingWeight        0.1
DM.NumberPulay         5
DM.Tolerance           1.d-4
DM.UseSaveDM           F
SolutionMethod         diagon
ElectronicTemperature  0.075 eV


#
# Raw SIESTA artifacts for Graph2Mat/DeepH fair benchmarking
#

SaveHS                           true
Save.HS                          T
TS.HS.Save                       T
XML.Write                        T

WriteMullikenPop                 1