SystemName         graphene
#                  Graphene layer
#                  Ghost atoms included at the center of the bonds
#                  MeshCutoff: 600 Ry
#                  20 x 20 x 1 Monkhorst-Pack mesh

SystemLabel        graphene

NumberOfAtoms          2
NumberOfSpecies        2

%block ChemicalSpeciesLabel
  1   6  C
  2  -1  Ghost-H
%endblock ChemicalSpeciesLabel


%block PAO.Basis
C           2
 n=2   0   1
   4.088
   1.000
 n=2   1   1
   4.870
   1.000
Ghost-H     1
 n=1   0   1
   5.000
   1.000
%endblock PAO.Basis

#
# Atomic structure: lattice vectors and atomic coordinates
#

LatticeConstant      1.46700 Ang

%block LatticeVectors
   1.500000000       -0.8660254038        0.0000000000
   1.500000000        0.8660254038        0.0000000000
   0.000000000        0.0000000000       20.0000000000
%endblock LatticeVectors

AtomicCoordinatesFormat Fractional
%block AtomicCoordinatesAndAtomicSpecies
   0.3333333333   0.3333333333   0.0000000000  1
   0.6666666667   0.6666666667   0.0000000000  1
%endblock AtomicCoordinatesAndAtomicSpecies

%block kgrid_Monkhorst_Pack
  20   0   0  0.0
   0  20   0  0.0
   0   0   1  0.0
%endblock Kgrid_Monkhorst_Pack

#
# DFT, Grid, SCF
#

XC.functional          GGA
XC.authors             PBE

MeshCutoff             600.0 Ry
MaxSCFIterations       500
DM.MixingWeight        0.1
DM.NumberPulay         5
DM.Tolerance           1.d-4
DM.UseSaveDM           F
SolutionMethod         diagon
ElectronicTemperature  0.075 eV

#
# Plotting the band structure
#

BandLinesScale      ReciprocalLatticeVectors
%block BandLines
1   0.0       0.0        0.0   \Gamma
50  0.33333   0.666667   0.0   K
50  0.5       0.5        0.0   M
50  0.0       0.0        0.0   \Gamma
%endblock BandLines

#
# Plotting the Projected Density Of States
#

%block ProjectedDensityOfStates
  -70.00  5.00  0.150 3000  eV
%endblock ProjectedDensityOfStates

%PDOS.kgrid_Monkhorst_Pack
   60  0  0  0.5
    0 60  0  0.5
    0  0  2  0.5
%end PDOS.kgrid_Monkhorst_Pack

#
# Variables related with the Wannierization of the manifolds
#
%block Wannier.Manifolds
  entangled
%endblock Wannier.Manifolds

%block Wannier.Manifold.entangled
 bands   1   8
 trial-orbitals  9 10 11  3  7
 spreading.nitt 0
 wannier_plot  3
 fermi_surface_plot true
 write_hr true
 write_tb true
 window  -30.0    5.0   eV
 window.frozen  -30.0   -7.5   eV
%endblock Wannier.Manifold.entangled

Wannier.Manifolds.Unk  .false.
Wannier.k [20  20  1]

WriteMullikenPop    1

#
# Raw SIESTA artifacts for Graph2Mat/DeepH fair benchmarking
#
SaveHS                           true
Save.HS                          T
TS.HS.Save                       T
XML.Write                        T
