# Single-point calculation for an atom-displaced H2O geometry

SystemName   H2O sample_0946
SystemLabel  sample_0946

NumberOfSpecies  2
NumberOfAtoms    3

%block ChemicalSpeciesLabel
 1   8  O
 2   1  H
%endblock ChemicalSpeciesLabel

LatticeConstant  1.0 Ang
%block LatticeVectors
 15.00000000  0.00000000  0.00000000
 0.00000000  15.00000000  0.00000000
 0.00000000  0.00000000  15.00000000
%endblock LatticeVectors

AtomicCoordinatesFormat Ang
%block AtomicCoordinatesAndAtomicSpecies
 7.48558412  7.56244530  7.58456049  1  # O
 7.50925527  8.34426937  7.00570341  2  # H
 7.46666961  6.78351469  7.00872014  2  # H
%endblock AtomicCoordinatesAndAtomicSpecies

%block kgrid_Monkhorst_Pack
 1  0  0  0.0
 0  1  0  0.0
 0  0  1  0.0
%endblock kgrid_Monkhorst_Pack

ForceAuxCell       T
MeshCutoff         200 Ry
PAO.BasisType      split
PAO.BasisSize      DZP
PAO.EnergyShift    0.03 eV
XC.functional      GGA
XC.authors         PBE
MaxSCFIterations   200
SolutionMethod     diagon

DM.MixingWeight                0.02
DM.NumberPulay                3
DM.Tolerance                  1.d-5
DM.Require.Energy.Convergence T
DM.Energy.Tolerance           1.e-5 eV
SCF.MixAfterConvergence       F

SpinPolarized     F
FixSpin           F
NonCollinearSpin  F
DM.InitSpinAF     F

ON.UseSaveLWF     T
DM.UseSaveDM      F
UseSaveData       T
LongOutput        T
WriteCoorXmol     T
WriteCoorStep     T
WriteForces       T
SaveHS            T
XML.Write         T
