SystemName      Si vacancy smoke cell
SystemLabel     si7
NumberOfAtoms   7
NumberOfSpecies 1

%block ChemicalSpeciesLabel
  1  14  Si
%endblock ChemicalSpeciesLabel

LatticeConstant 5.430 Ang

%block LatticeVectors
  1.00000000  0.00000000  0.00000000
  0.00000000  1.00000000  0.00000000
  0.00000000  0.00000000  1.00000000
%endblock LatticeVectors

AtomicCoordinatesFormat ScaledCartesian

%block AtomicCoordinatesAndAtomicSpecies
  0.50000000  0.50000000  0.00000000  1  # Si
  0.50000000  0.00000000  0.50000000  1  # Si
  0.00000000  0.50000000  0.50000000  1  # Si
  0.25000000  0.25000000  0.25000000  1  # Si
  0.75000000  0.75000000  0.25000000  1  # Si
  0.75000000  0.25000000  0.75000000  1  # Si
  0.25000000  0.75000000  0.75000000  1  # Si
%endblock AtomicCoordinatesAndAtomicSpecies

%block kgrid_Monkhorst_Pack
  1  0  0  0.0
  0  1  0  0.0
  0  0  1  0.0
%endblock kgrid_Monkhorst_Pack

ForceAuxCell                    T
MeshCutoff                      60 Ry
PAO.BasisType                   split
PAO.BasisSize                   DZ
PAO.EnergyShift                 0.03 eV
XC.functional                   GGA
XC.authors                      PBE
MaxSCFIterations                80
SolutionMethod                  diagon
DM.MixingWeight                 0.05
DM.NumberPulay                  3
DM.Tolerance                    0.001
DM.Require.Energy.Convergence   F
DM.Energy.Tolerance             1.e-4 eV
SpinPolarized                   F
FixSpin                         F
NonCollinearSpin                F
SaveHS                          true
Save.HS                         T
TS.HS.Save                      T
TS.DE.Save                      T
XML.Write                       T
Write.OrbitalIndex              T
